generated by phonopy                    
    1.000000000000000     
    -0.0000000000000000    2.4975817490657084    2.4975817490657084
     2.4975817490657084   -0.0000000000000000    2.4975817490657084
     2.4975817490657084    2.4975817490657084    0.0000000000000000
   Li   Mg   N 
     1     1     1
Direct
  0.2500000000000000  0.2500000000000000  0.2500000000000000
  0.7500000000000000  0.7500000000000000  0.7500000000000000
  0.0000000000000000  0.0000000000000000  0.0000000000000000
 
  0.00000000E+00  0.00000000E+00  0.00000000E+00
  0.00000000E+00  0.00000000E+00  0.00000000E+00
  0.00000000E+00  0.00000000E+00  0.00000000E+00
