generated by phonopy                    
    1.000000000000000     
     2.3265927717818498    1.3432589630828879    7.6353246981941583
    -2.3265927717818498    1.3432589630828879    7.6353246981941583
    -0.0000000000000002   -2.6865179261657759    7.6353246981941583
   Ba   P    Cl
     2     1     1
Direct
  0.7591324260349168  0.7591324260349168  0.7591324260349168
  0.2408675739650832  0.2408675739650832  0.2408675739650832
  0.5000000000000000  0.5000000000000000  0.5000000000000000
  0.0000000000000000  0.0000000000000000  0.0000000000000000
