generated by phonopy                    
    1.000000000000000     
     2.1538240110305416    1.2435108725555626    7.6402744046370961
    -2.1538240110305416    1.2435108725555626    7.6402744046370961
    -0.0000000000000000   -2.4870217451111252    7.6402744046370961
   Rb   La   S 
     1     1     2
Direct
  0.0000000000000000  0.0000000000000000  0.0000000000000000
  0.5000000000000000  0.5000000000000000  0.5000000000000000
  0.7670317559872473  0.7670317559872473  0.7670317559872473
  0.2329682440127527  0.2329682440127527  0.2329682440127527
 
  0.00000000E+00  0.00000000E+00  0.00000000E+00
  0.00000000E+00  0.00000000E+00  0.00000000E+00
  0.00000000E+00  0.00000000E+00  0.00000000E+00
  0.00000000E+00  0.00000000E+00  0.00000000E+00
