generated by phonopy                    
1.0
        7.8307662010         0.0000000000         0.0000000000
        6.8425506357         3.8079390874         0.0000000000
        6.8425506357         1.7757413892         3.3685520053
   Lu   Tl    S
    1    1    2
Cartesian
     0.000000000         0.000000000         0.000000000
    10.757933736         2.791840238         1.684276003
    15.737677842         4.084156245         2.463911173
     5.778189630         1.499524231         0.904640833
