generated by phonopy                    
    1.000000000000000     
     1.9670394631786945    1.1356707635728358    7.4941250413309239
    -1.9670394631786945    1.1356707635728358    7.4941250413309239
     0.0000000000000002   -2.2713415271456721    7.4941250413309239
   Lu   Tl   S 
     1     1     2
Direct
  0.0000000000000000  0.0000000000000000  0.0000000000000000
  0.5000000000000000  0.5000000000000000  0.5000000000000000
  0.7314451974871474  0.7314451974871474  0.7314451974871474
  0.2685548025128455  0.2685548025128455  0.2685548025128455
 
  0.00000000E+00  0.00000000E+00  0.00000000E+00
  0.00000000E+00  0.00000000E+00  0.00000000E+00
  0.00000000E+00  0.00000000E+00  0.00000000E+00
  0.00000000E+00  0.00000000E+00  0.00000000E+00
