generated by phonopy                    
    1.000000000000000     
     1.7198162934647458    0.9929363999885754    6.4606752312251343
    -1.7198162934647458    0.9929363999885754    6.4606752312251343
     0.0000000000000001   -1.9858727999771508    6.4606752312251343
   Rb   Er   O 
     1     1     2
Direct
  0.0000000000000000  0.0000000000000000  0.0000000000000000
  0.5000000000000000  0.5000000000000000  0.5000000000000000
  0.2252417145528085  0.2252417145528085  0.2252417145528085
  0.7747582854471844  0.7747582854471844  0.7747582854471844
 
  0.00000000E+00  0.00000000E+00  0.00000000E+00
  0.00000000E+00  0.00000000E+00  0.00000000E+00
  0.00000000E+00  0.00000000E+00  0.00000000E+00
  0.00000000E+00  0.00000000E+00  0.00000000E+00
