generated by phonopy                    
    1.000000000000000     
     2.2353362971539248    1.2905720128911600    8.1575618679350477
    -2.2353362971539252    1.2905720128911600    8.1575618679350477
    -0.0000000000000000   -2.5811440257823195    8.1575618679350477
   Gd   Tl   Te
     1     1     2
Direct
  0.0000000000000000  0.0000000000000000  0.0000000000000000
  0.5000000000000000  0.5000000000000000  0.5000000000000000
  0.2613448684167352  0.2613448684167352  0.2613448684167352
  0.7386551315832648  0.7386551315832648  0.7386551315832648
