generated by phonopy                    
    1.000000000000000     
     1.9799364797936683    1.1431168595872339    6.5943791497056115
    -1.9799364797936680    1.1431168595872339    6.5943791497056115
    -0.0000000000000001   -2.2862337191744677    6.5943791497056115
   Na   Dy   S 
     1     1     2
Direct
  0.5000000000000000  0.5000000000000000  0.5000000000000000
  0.0000000000000000  0.0000000000000000  0.0000000000000000
  0.7430945232048174  0.7430945232048174  0.7430945232048174
  0.2569054767951826  0.2569054767951826  0.2569054767951826
 
  0.00000000E+00  0.00000000E+00  0.00000000E+00
  0.00000000E+00  0.00000000E+00  0.00000000E+00
  0.00000000E+00  0.00000000E+00  0.00000000E+00
  0.00000000E+00  0.00000000E+00  0.00000000E+00
