generated by phonopy                    
    1.000000000000000     
     0.0000000000000000    3.2724613355799281    3.2724613355799281
     3.2724613355799281    0.0000000000000000    3.2724613355799281
     3.2724613355799281    3.2724613355799281    0.0000000000000000
   Li   Sb
     3     1
Direct
  0.5000000000000000  0.5000000000000000  0.5000000000000000
  0.7500000000000000  0.7500000000000000  0.7500000000000000
  0.2500000000000000  0.2500000000000000  0.2500000000000000
  0.0000000000000000  0.0000000000000000  0.0000000000000000
 
  0.00000000E+00  0.00000000E+00  0.00000000E+00
  0.00000000E+00  0.00000000E+00  0.00000000E+00
  0.00000000E+00  0.00000000E+00  0.00000000E+00
  0.00000000E+00  0.00000000E+00  0.00000000E+00
