generated by phonopy                    
    1.000000000000000     
     1.9134142163712811    1.1047102128932158    6.6438998368724507
    -1.9134142163712811    1.1047102128932158    6.6438998368724507
     0.0000000000000000   -2.2094204257864316    6.6438998368724507
   Na   In   S 
     1     1     2
Direct
  0.5000000000000000  0.5000000000000000  0.5000000000000000
  0.0000000000000000  0.0000000000000000  0.0000000000000000
  0.7404852343391823  0.7404852343391823  0.7404852343391823
  0.2595147656608177  0.2595147656608177  0.2595147656608177
 
  0.00000000E+00  0.00000000E+00  0.00000000E+00
  0.00000000E+00  0.00000000E+00  0.00000000E+00
  0.00000000E+00  0.00000000E+00  0.00000000E+00
  0.00000000E+00  0.00000000E+00  0.00000000E+00
