generated by phonopy
   1.0
     6.7181138268009217   -1.8569713656061055    0.0000000000000000
     6.7181138268009217    1.8569713656061055    0.0000000000000000
    -1.8842835568887333    0.0000000000000000    6.1647641586433144
Rb Tl O
   2    2    2
Direct
  0.1242121737874554  0.1242121737874555  0.3435931860201613
  0.8757878262125446  0.8757878262125446  0.6564068139798382
  0.3583900340265558  0.3583900340265558  0.1482440748511885
  0.6416099659734442  0.6416099659734442  0.8517559251488112
  0.7507464388609931  0.7507464388609931  0.2137446690404907
  0.2492535611390068  0.2492535611390068  0.7862553309595088
