generated by phonopy
   1.0
     6.0050674345206243    0.0000000000000000    0.0000000000000000
     0.0000000000000000    6.7494832655326009    0.0000000000000000
     0.0000000000000000    0.0000000000000000    3.2461983059560775
Sb Os
   4    2
Direct
  0.3183823562014574  0.8576701255896820  0.5000000000000001
  0.6816176437985426  0.1423298744103182  0.5000000000000001
  0.1816176437985426  0.3576701255896820  0.0000000000000000
  0.8183823562014574  0.6423298744103183  0.0000000000000000
  0.5000000000000000  0.5000000000000001  0.5000000000000001
  0.0000000000000000  0.0000000000000000  0.0000000000000000
