generated by phonopy
   1.0
     4.8383908570394434    0.0000000000000000    0.0000000000000000
     0.0000000000000000    4.8383908570394434    0.0000000000000000
     0.0000000000000000    0.0000000000000000    8.3195084842350795
K Mg Sb
   2    2    2
Direct
  0.4999999999999999  0.0000000000000000  0.6489069990407472
  0.0000000000000000  0.4999999999999999  0.3510930009592528
  0.0000000000000000  0.0000000000000000  0.0000000000000000
  0.4999999999999999  0.4999999999999999  0.0000000000000000
  0.4999999999999999  0.0000000000000000  0.2013024618301245
  0.0000000000000000  0.4999999999999999  0.7986975381698755
