generated by phonopy                    
    1.000000000000000     
     2.2972927246133752    1.3263425729629015    8.5620691084100287
    -2.2972927246133756    1.3263425729629015    8.5620691084100287
     0.0000000000000005   -2.6526851459258030    8.5620691084100287
   Rb   Sm   Te
     1     1     2
Direct
  0.0000000000000000  0.0000000000000000  0.0000000000000000
  0.5000000000000000  0.5000000000000000  0.5000000000000000
  0.7656335212138501  0.7656335212138501  0.7656335212138501
  0.2343664787861499  0.2343664787861499  0.2343664787861499
