generated by phonopy                    
    1.000000000000000     
    -0.0000000000000000    3.2524965072485070    3.2524965072485070
     3.2524965072485070    0.0000000000000000    3.2524965072485070
     3.2524965072485070    3.2524965072485070    0.0000000000000000
   Y    Ni   Bi
     1     1     1
Direct
  0.5000000000000000  0.5000000000000000  0.5000000000000000
  0.2500000000000000  0.2500000000000000  0.2500000000000000
  0.0000000000000000  0.0000000000000000  0.0000000000000000
 
  0.00000000E+00  0.00000000E+00  0.00000000E+00
  0.00000000E+00  0.00000000E+00  0.00000000E+00
  0.00000000E+00  0.00000000E+00  0.00000000E+00
