generated by phonopy
   1.0
     4.0825400827708265    0.0000000000000000    0.0000000000000000
     0.0000000000000000    4.0825400827708265    0.0000000000000000
     0.0000000000000000    0.0000000000000000    6.9410496139913533
Sr H Cl
   2    2    2
Direct
  0.0000000000000000  0.5000000000000000  0.7980516502393439
  0.5000000000000000  0.0000000000000000  0.2019483497606558
  0.5000000000000000  0.5000000000000000  0.0000000000000000
  0.0000000000000000  0.0000000000000000  0.0000000000000000
  0.5000000000000000  0.0000000000000000  0.6493716104184626
  0.0000000000000000  0.5000000000000000  0.3506283895815372
