generated by phonopy                    
    1.000000000000000     
     0.0000000000000000    2.6785744578533315    2.6785744578533315
     2.6785744578533315    0.0000000000000000    2.6785744578533315
     2.6785744578533315    2.6785744578533315   -0.0000000000000000
   Cd   F 
     1     2
Direct
  0.0000000000000000  0.0000000000000000  0.0000000000000000
  0.2500000000000000  0.2500000000000000  0.2500000000000000
  0.7500000000000000  0.7500000000000000  0.7500000000000000
 
  0.00000000E+00  0.00000000E+00  0.00000000E+00
  0.00000000E+00  0.00000000E+00  0.00000000E+00
  0.00000000E+00  0.00000000E+00  0.00000000E+00
