generated by phonopy                    
    1.000000000000000     
    -1.7913736787710344    1.7913736787710342    5.5448198291974711
     1.7913736787710344   -1.7913736787710337    5.5448198291974711
     1.7913736787710344    1.7913736787710337   -5.5448198291974711
   Hg   F 
     2     2
Direct
  0.8851168220566379  0.8851168220566379  0.0000000000000000
  0.1148831779433621  0.1148831779433621  0.0000000000000000
  0.6871258848012332  0.6871258848012332  0.0000000000000000
  0.3128741151987668  0.3128741151987668  0.0000000000000000
 
  0.00000000E+00  0.00000000E+00  0.00000000E+00
  0.00000000E+00  0.00000000E+00  0.00000000E+00
  0.00000000E+00  0.00000000E+00  0.00000000E+00
  0.00000000E+00  0.00000000E+00  0.00000000E+00
