generated by phonopy                    
    1.000000000000000     
     2.0226024509977680    1.1677500695471577    7.6513901862869282
    -2.0226024509977676    1.1677500695471577    7.6513901862869282
    -0.0000000000000001   -2.3355001390943153    7.6513901862869282
   Rb   Ho   S 
     1     1     2
Direct
  0.0000000000000000  0.0000000000000000  0.0000000000000000
  0.5000000000000000  0.5000000000000000  0.5000000000000000
  0.7693910119440588  0.7693910119440588  0.7693910119440588
  0.2306089880559412  0.2306089880559412  0.2306089880559412
