generated by phonopy
   1.0
     3.9645641432225975    0.0000000000000000    0.0000000000000000
     0.0000000000000000    3.9645641432225975    0.0000000000000000
     0.0000000000000000    0.0000000000000000    6.7462700227253141
Th S O
   2    2    2
Direct
  0.5000000000000000  0.0000000000000000  0.7991185115262951
  0.0000000000000000  0.5000000000000000  0.2008814884737049
  0.0000000000000000  0.5000000000000000  0.6377824216163575
  0.5000000000000000  0.0000000000000000  0.3622175783836425
  0.0000000000000000  0.0000000000000000  0.0000000000000000
  0.5000000000000000  0.5000000000000000  0.0000000000000000
