generated by phonopy                    
    1.000000000000000     
     2.0586640456162977    1.1885702409075733    7.7454049593301573
    -2.0586640456162977    1.1885702409075733    7.7454049593301573
    -0.0000000000000001   -2.3771404818151471    7.7454049593301573
   Tm   Tl   Se
     1     1     2
Direct
  0.0000000000000000  0.0000000000000000  0.0000000000000000
  0.5000000000000000  0.5000000000000000  0.5000000000000000
  0.2657843707213488  0.2657843707213488  0.2657843707213488
  0.7342156292786512  0.7342156292786512  0.7342156292786512
 
  0.00000000E+00  0.00000000E+00  0.00000000E+00
  0.00000000E+00  0.00000000E+00  0.00000000E+00
  0.00000000E+00  0.00000000E+00  0.00000000E+00
  0.00000000E+00  0.00000000E+00  0.00000000E+00
