generated by phonopy
   1.0
    -1.6863470821755824    1.6863470821755819    6.7081247162859947
     1.6863470821755824   -1.6863470821755826    6.7081247162859947
     1.6863470821755824    1.6863470821755826   -6.7081247162859947
Na Hg O
   2    1    2
Direct
  0.6765914926703722  0.6765914926703721  0.0000000000000002
  0.3234085073296278  0.3234085073296276  0.0000000000000000
  0.0000000000000000  0.0000000000000000  0.0000000000000000
  0.8505962666523672  0.8505962666523670  0.0000000000000002
  0.1494037333476328  0.1494037333476326  0.9999999999999999
