generated by phonopy                    
    1.000000000000000     
     1.9893437392284210    1.1485481433542257    7.5044128009411439
    -1.9893437392284212    1.1485481433542257    7.5044128009411439
     0.0000000000000002   -2.2970962867084510    7.5044128009411439
   Er   Tl   S 
     1     1     2
Direct
  0.0000000000000000  0.0000000000000000  0.0000000000000000
  0.5000000000000000  0.5000000000000000  0.5000000000000000
  0.2677854952095018  0.2677854952095018  0.2677854952095018
  0.7322145047904982  0.7322145047904982  0.7322145047904982
