generated by phonopy                    
    1.000000000000000     
     2.2644299428129129    1.3073692370440837    8.1277542633333919
    -2.2644299428129129    1.3073692370440837    8.1277542633333919
     0.0000000000000001   -2.6147384740881674    8.1277542633333919
   Sm   Tl   Te
     1     1     2
Direct
 -0.0000000000000000 -0.0000000000000000  0.0000000000000000
  0.5000000000000000  0.5000000000000000  0.5000000000000000
  0.7393344137352534  0.7393344137352534  0.7393344137352534
  0.2606655862647466  0.2606655862647466  0.2606655862647466
 
  0.00000000E+00  0.00000000E+00  0.00000000E+00
  0.00000000E+00  0.00000000E+00  0.00000000E+00
  0.00000000E+00  0.00000000E+00  0.00000000E+00
  0.00000000E+00  0.00000000E+00  0.00000000E+00
