generated by phonopy                    
    1.000000000000000     
     3.1636306055663268   -1.4969826741940564   -0.0086840461253536
     3.1636306055663268    1.4969826741940564   -0.0086840461253536
    -3.0480747188337687    0.0000000000000000    5.4071526483367345
   Na   Ag   O 
     1     1     2
Direct
  0.0000000000000000  0.0000000000000000  0.5000000000000000
  0.0000000000000000  0.0000000000000000  0.0000000000000000
  0.4268800341920169  0.4268800341920169  0.7548655480347364
  0.5731199658079831  0.5731199658079831  0.2451344519652636
 
  0.00000000E+00  0.00000000E+00  0.00000000E+00
  0.00000000E+00  0.00000000E+00  0.00000000E+00
  0.00000000E+00  0.00000000E+00  0.00000000E+00
  0.00000000E+00  0.00000000E+00  0.00000000E+00
