generated by phonopy                    
    1.000000000000000     
     1.9453652869569060    1.1231571720967231    6.1531389492935453
    -1.9453652869569060    1.1231571720967231    6.1531389492935453
     0.0000000000000000   -2.2463143441934461    6.1531389492935453
   Li   Ho   S 
     1     1     2
Direct
  0.5000000000000000  0.5000000000000000  0.5000000000000000
  0.0000000000000000  0.0000000000000000  0.0000000000000000
  0.2499818015048376  0.2499818015048376  0.2499818015048376
  0.7500181984951624  0.7500181984951624  0.7500181984951624
