generated by phonopy                    
    1.000000000000000     
     3.7402469144519599    0.0000000000000000    0.0000000000000000
    -1.8701234572259797    3.2391488443417589   -0.0000000000000000
    -0.0000000000000000   -0.0000000000000000    3.8250374576048989
   Lu   H    Se
     1     1     1
Direct
  0.0000000000000000  0.0000000000000000  0.0000000000000000
  0.3333333333333357  0.6666666666666643  0.0000000000000000
  0.6666666666666643  0.3333333333333357  0.5000000000000000
 
  0.00000000E+00  0.00000000E+00  0.00000000E+00
  0.00000000E+00  0.00000000E+00  0.00000000E+00
  0.00000000E+00  0.00000000E+00  0.00000000E+00
