generated by phonopy                    
    1.000000000000000     
     4.2782524726225306   -0.0000000000000000   -0.0000000000000000
     0.0000000000000000    4.2782524726225306   -0.0000000000000000
     0.0000000000000000   -0.0000000000000000    4.2782524726225306
   Cs   Au
     1     1
Direct
  0.0000000000000000  0.0000000000000000  0.0000000000000000
  0.5000000000000000  0.5000000000000000  0.5000000000000000
 
  0.00000000E+00  0.00000000E+00  0.00000000E+00
  0.00000000E+00  0.00000000E+00  0.00000000E+00
