generated by phonopy
   1.0
     4.6552744144269607    0.0000000000000000    0.0000000000000000
     0.0000000000000000    4.6552744144269607    0.0000000000000000
     0.0000000000000000    0.0000000000000000    7.9164389454267887
Ba I F
   2    2    2
Direct
  0.0000000000000000  0.5000000000000000  0.8258162108544695
  0.5000000000000000  0.0000000000000000  0.1741837891455305
  0.5000000000000000  0.0000000000000000  0.6474363332602664
  0.0000000000000000  0.5000000000000000  0.3525636667397336
  0.5000000000000000  0.5000000000000000  0.0000000000000000
  0.0000000000000000  0.0000000000000000  0.0000000000000000
