generated by phonopy
   1.0
    -1.9044279600322616    3.7064369820517826    4.9419534853674136
     1.9044279600322616   -3.7064369820517826    4.9419534853674136
     1.9044279600322616    3.7064369820517826   -4.9419534853674136
K Pt Se
   2    1    2
Direct
  0.2998577379490046  0.7998577379490046  0.5000000000000000
  0.7001422620509956  0.2001422620509957  0.5000000000000000
  0.0000000000000000  0.0000000000000000  0.0000000000000000
  0.7800138948345996  0.5000000000000000  0.2800138948345996
  0.2199861051654004  0.5000000000000000  0.7199861051654004
