generated by phonopy                    
    1.000000000000000     
     2.2434145468543152    1.2952359925302614    7.5010422812404194
    -2.2434145468543156    1.2952359925302614    7.5010422812404194
     0.0000000000000001   -2.5904719850605225    7.5010422812404194
   Na   Sm   Te
     1     1     2
Direct
  0.0000000000000000  0.0000000000000000  0.0000000000000000
  0.5000000000000000  0.5000000000000000  0.5000000000000000
  0.7539403976912311  0.7539403976912311  0.7539403976912311
  0.2460596023087689  0.2460596023087689  0.2460596023087689
