generated by phonopy                    
    1.000000000000000     
     2.0311016801453441    1.1726571017834151    6.5142883979820176
    -2.0311016801453436    1.1726571017834151    6.5142883979820176
     0.0000000000000001   -2.3453142035668306    6.5142883979820176
   Li   Y    Se
     1     1     2
Direct
  0.5000000000000000  0.5000000000000000  0.5000000000000000
  0.0000000000000000  0.0000000000000000  0.0000000000000000
  0.7509213194138695  0.7509213194138695  0.7509213194138695
  0.2490786805861305  0.2490786805861305  0.2490786805861305
