generated by phonopy
   1.0
     4.8193578008428357    0.0000000000000000    0.0000000000000000
    -2.4096789004214179    4.1736862854566006    0.0000000000000000
     0.0000000000000000    0.0000000000000000    8.2115717243310176
Ba Mg Sb
   1    2    2
Direct
  0.0000000000000000  0.0000000000000000  0.0000000000000000
  0.6666666666666666  0.3333333333333333  0.3763811032861355
  0.3333333333333334  0.6666666666666667  0.6236188967138645
  0.6666666666666666  0.3333333333333333  0.7318940024283052
  0.3333333333333334  0.6666666666666667  0.2681059975716948
