generated by phonopy                    
    1.000000000000000     
     4.2475833024735978    0.0000000000000000    0.0000000000000000
    -2.1237916512367989    3.6785150446327370    0.0000000000000000
     0.0000000000000000    0.0000000000000000    4.9915459487279144
   Sr   Ga   Ge   H 
     1     1     1     1
Direct
  0.3333333333333357  0.6666666666666643  0.0004837125974947
  0.6666666666666643  0.3333333333333357  0.4418211822687992
 -0.0000000000000000 -0.0000000000000000  0.5631942239189088
  0.6666666666666643  0.3333333333333357  0.0888978812148051
