generated by phonopy                    
    1.000000000000000     
     2.0835888673122080    1.2029605934232113    7.7432568889881512
    -2.0835888673122085    1.2029605934232113    7.7432568889881512
     0.0000000000000005   -2.4059211868464230    7.7432568889881512
   Dy   Tl   Se
     1     1     2
Direct
  0.0000000000000000  0.0000000000000000  0.0000000000000000
  0.5000000000000000  0.5000000000000000  0.5000000000000000
  0.7350960546061245  0.7350960546061245  0.7350960546061245
  0.2649039453938826  0.2649039453938826  0.2649039453938826
 
  0.00000000E+00  0.00000000E+00  0.00000000E+00
  0.00000000E+00  0.00000000E+00  0.00000000E+00
  0.00000000E+00  0.00000000E+00  0.00000000E+00
  0.00000000E+00  0.00000000E+00  0.00000000E+00
