generated by phonopy                    
    1.000000000000000     
     1.9369445933786289    1.1182954823925415    6.5926372603341132
    -1.9369445933786291    1.1182954823925415    6.5926372603341132
    -0.0000000000000000   -2.2365909647850826    6.5926372603341132
   Na   Lu   S 
     1     1     2
Direct
  0.0000000000000000  0.0000000000000000  0.0000000000000000
  0.5000000000000000  0.5000000000000000  0.5000000000000000
  0.7582826825198552  0.7582826825198552  0.7582826825198552
  0.2417173174801448  0.2417173174801448  0.2417173174801448
