generated by phonopy                    
    1.000000000000000     
     0.0000000000000000    2.1008350932560127    2.1008350932560127
     2.1008350932560127   -0.0000000000000000    2.1008350932560127
     2.1008350932560127    2.1008350932560127   -0.0000000000000000
   Mg   O 
     1     1
Direct
  0.0000000000000000  0.0000000000000000  0.0000000000000000
  0.5000000000000000  0.5000000000000000  0.5000000000000000
 
  0.00000000E+00  0.00000000E+00  0.00000000E+00
  0.00000000E+00  0.00000000E+00  0.00000000E+00
