generated by phonopy                    
    1.000000000000000     
     2.1085211027322366    1.2173552262544629    6.6171558455455433
    -2.1085211027322366    1.2173552262544629    6.6171558455455433
    -0.0000000000000001   -2.4347104525089258    6.6171558455455433
   Na   La   S 
     1     1     2
Direct
  0.5000000000000000  0.5000000000000000  0.5000000000000000
 -0.0000000000000000 -0.0000000000000000 -0.0000000000000000
  0.7453052527253490  0.7453052527253490  0.7453052527253490
  0.2546947472746511  0.2546947472746511  0.2546947472746511
