generated by phonopy                    
    1.000000000000000     
     1.6882265535938552    0.9746980551704869    6.2005058297025215
    -1.6882265535938554    0.9746980551704869    6.2005058297025215
     0.0000000000000002   -1.9493961103409738    6.2005058297025215
   Lu   Ag   O 
     1     1     2
Direct
  0.5000000000000000  0.5000000000000000  0.5000000000000000
 -0.0000000000000000  0.0000000000000000 -0.0000000000000000
  0.8890483158201896  0.8890483158201896  0.8890483158201896
  0.1109516841798103  0.1109516841798103  0.1109516841798103
 
  0.00000000E+00  0.00000000E+00  0.00000000E+00
  0.00000000E+00  0.00000000E+00  0.00000000E+00
  0.00000000E+00  0.00000000E+00  0.00000000E+00
  0.00000000E+00  0.00000000E+00  0.00000000E+00
