generated by phonopy
   1.0
    -3.6226883206383973    3.6226883206383969    4.5418607876867023
     3.6226883206383973   -3.6226883206383960    4.5418607876867023
     3.6226883206383973    3.6226883206383960   -4.5418607876867023
Ba Te
   2    4
Direct
  0.7499999999999999  0.7500000000000000  0.9999999999999999
  0.2500000000000000  0.2500000000000000  0.0000000000000000
  0.3622321424776445  0.8622321424776445  0.2244642849552889
  0.8622321424776447  0.6377678575223555  0.5000000000000002
  0.6377678575223555  0.1377678575223555  0.7755357150447110
  0.1377678575223555  0.3622321424776445  0.5000000000000002
