generated by phonopy                    
    1.000000000000000     
    -0.0000000000000000    3.1981790756223694    3.1981790756223694
     3.1981790756223694   -0.0000000000000000    3.1981790756223694
     3.1981790756223694    3.1981790756223694    0.0000000000000000
   Mg   Ge
     2     1
Direct
  0.7500000000000000  0.7500000000000000  0.7500000000000000
  0.2500000000000000  0.2500000000000000  0.2500000000000000
  0.0000000000000000  0.0000000000000000  0.0000000000000000
 
  0.00000000E+00  0.00000000E+00  0.00000000E+00
  0.00000000E+00  0.00000000E+00  0.00000000E+00
  0.00000000E+00  0.00000000E+00  0.00000000E+00
