generated by phonopy                    
    1.000000000000000     
     0.0000000000000000    3.7433420918236404    3.7433420918236404
     3.7433420918236404    0.0000000000000000    3.7433420918236404
     3.7433420918236404    3.7433420918236404   -0.0000000000000000
   Rb   I 
     1     1
Direct
  0.0000000000000000  0.0000000000000000  0.0000000000000000
  0.5000000000000000  0.5000000000000000  0.5000000000000000
 
  0.00000000E+00  0.00000000E+00  0.00000000E+00
  0.00000000E+00  0.00000000E+00  0.00000000E+00
