generated by phonopy
   1.0
     4.7430630081570637    0.0000000000000000    0.0000000000000000
     0.0000000000000000    4.7430630081570637    0.0000000000000000
     0.0000000000000000    0.0000000000000000    7.8179625390645446
Ba H I
   2    2    2
Direct
  0.4999999999999999  0.0000000000000000  0.8273831218536216
  0.0000000000000000  0.4999999999999999  0.1726168781463784
  0.4999999999999999  0.4999999999999999  0.0000000000000000
  0.0000000000000000  0.0000000000000000  0.0000000000000000
  0.0000000000000000  0.4999999999999999  0.6593399588394462
  0.4999999999999999  0.0000000000000000  0.3406600411605538
