generated by phonopy
   1.0
     3.4156300279462184    0.0000000000000000    0.0000000000000000
     0.0000000000000000    3.3417700675961708    0.0000000000000000
    -1.5682723505320275    0.0000000000000000    4.9799534076619629
Na H O
   2    2    2
Direct
  0.1589302856411621  0.7937767538636535  0.3031917685756867
  0.8410697143588379  0.2937767538636535  0.6968082314243134
  0.4624675574863346  0.9357700753801694  0.9310881580595094
  0.5375324425136654  0.4357700753801694  0.0689118419404906
  0.3676443003934082  0.7704131707561714  0.7673714918495804
  0.6323556996065918  0.2704131707561714  0.2326285081504196
