generated by phonopy                    
    1.000000000000000     
     0.0000000000000000    3.4087501909756943    3.4087501909756943
     3.4087501909756943    0.0000000000000000    3.4087501909756943
     3.4087501909756943    3.4087501909756943   -0.0000000000000000
   Na   Li   Sb
     1     2     1
Direct
  0.5000000000000000  0.5000000000000000  0.5000000000000000
  0.2500000000000000  0.2500000000000000  0.2500000000000000
  0.7500000000000000  0.7500000000000000  0.7500000000000000
  0.0000000000000000  0.0000000000000000  0.0000000000000000
