generated by phonopy                    
    1.000000000000000     
     1.5632458057600513    0.9025403867651188    5.0471790248536079
    -1.5632458057600513    0.9025403867651188    5.0471790248536079
    -0.0000000000000001   -1.8050807735302377    5.0471790248536079
   Na   Rh   O 
     1     1     2
Direct
  0.0000000000000000  0.0000000000000000  0.0000000000000000
  0.5000000000000000  0.5000000000000000  0.5000000000000000
  0.7660516806687241  0.7660516806687241  0.7660516806687241
  0.2339483193312759  0.2339483193312759  0.2339483193312759
