generated by phonopy
   1.0
     1.9650499330045161    1.1345221077912133    6.5882203665361043
    -1.9650499330045164    1.1345221077912133    6.5882203665361043
     0.0000000000000000   -2.2690442155824266    6.5882203665361043
Na Er S
   1    1    2
Direct
  0.4999999999999999  0.4999999999999999  0.5000000000000001
  0.0000000000000000  0.0000000000000000  0.0000000000000000
  0.7422186599999997  0.7422186599999998  0.7422186599999998
  0.2577813400000002  0.2577813400000002  0.2577813400000002
