generated by phonopy                    
    1.000000000000000     
     2.0334900961965898    1.1740360544335386    6.4878960918474480
    -2.0334900961965898    1.1740360544335386    6.4878960918474480
     0.0000000000000000   -2.3480721088670773    6.4878960918474480
   Li   Dy   Se
     1     1     2
Direct
  0.5000000000000000  0.5000000000000000  0.5000000000000000
  0.0000000000000000  0.0000000000000000  0.0000000000000000
  0.7510720224299092  0.7510720224299092  0.7510720224299092
  0.2489279775700979  0.2489279775700979  0.2489279775700979
 
  0.00000000E+00  0.00000000E+00  0.00000000E+00
  0.00000000E+00  0.00000000E+00  0.00000000E+00
  0.00000000E+00  0.00000000E+00  0.00000000E+00
  0.00000000E+00  0.00000000E+00  0.00000000E+00
