generated by phonopy                    
    1.000000000000000     
     2.0736612664573388    1.1972288903972441    7.7368605093020362
    -2.0736612664573388    1.1972288903972441    7.7368605093020362
     0.0000000000000000   -2.3944577807944887    7.7368605093020362
   Ho   Tl   Se
     1     1     2
Direct
  0.0000000000000000  0.0000000000000000  0.0000000000000000
  0.5000000000000000  0.5000000000000000  0.5000000000000000
  0.2650928975764302  0.2650928975764302  0.2650928975764302
  0.7349071024235698  0.7349071024235698  0.7349071024235698
