generated by phonopy
   1.0
     3.7903350231302015    0.0000000000000000    0.0000000000000000
     0.0000000000000000    3.7903350231302015    0.0000000000000000
     0.0000000000000000    0.0000000000000000    8.4245542886581113
Er Br O
   2    2    2
Direct
  0.0000000000000000  0.5000000000000000  0.1332693639155450
  0.5000000000000000  0.0000000000000000  0.8667306360844547
  0.0000000000000000  0.5000000000000000  0.6709512792333852
  0.5000000000000000  0.0000000000000000  0.3290487207666147
  0.0000000000000000  0.0000000000000000  0.0000000000000000
  0.5000000000000000  0.5000000000000000  0.0000000000000000
