generated by phonopy                    
    1.000000000000000     
     2.1480783635092702    1.2401936214124876    7.6535515215289935
    -2.1480783635092702    1.2401936214124876    7.6535515215289935
    -0.0000000000000001   -2.4803872428249751    7.6535515215289935
   K    Sm   Se
     1     1     2
Direct
 -0.0000000000000000 -0.0000000000000000  0.0000000000000000
  0.5000000000000000  0.5000000000000000  0.5000000000000000
  0.7634950654097907  0.7634950654097907  0.7634950654097907
  0.2365049345902092  0.2365049345902092  0.2365049345902092
 
  0.00000000E+00  0.00000000E+00  0.00000000E+00
  0.00000000E+00  0.00000000E+00  0.00000000E+00
  0.00000000E+00  0.00000000E+00  0.00000000E+00
  0.00000000E+00  0.00000000E+00  0.00000000E+00
