generated by phonopy
   1.0
     3.8945114006373727    0.0000000000000000    0.0000000000000000
    -1.9472557003186863    3.3727458082800803    0.0000000000000000
     0.0000000000000000    0.0000000000000000    6.7145048954806423
Sm S O
   2    1    2
Direct
  0.3333333333333333  0.6666666666666666  0.2803926829330409
  0.6666666666666667  0.3333333333333334  0.7196073170669591
  0.0000000000000000  0.0000000000000000  0.0000000000000000
  0.3333333333333333  0.6666666666666666  0.6296085198937719
  0.6666666666666667  0.3333333333333334  0.3703914801062281
