generated by phonopy                    
    1.000000000000000     
     2.2184253905416567    1.2808084964063260    8.1563828760521790
    -2.2184253905416562    1.2808084964063260    8.1563828760521790
     0.0000000000000003   -2.5616169928126520    8.1563828760521790
   Y    Tl   Te
     1     1     2
Direct
  0.5000000000000000  0.5000000000000000  0.5000000000000000
  0.0000000000000000  0.0000000000000000  0.0000000000000000
  0.7619546414061844  0.7619546414061844  0.7619546414061844
  0.2380453585938156  0.2380453585938156  0.2380453585938156
