generated by phonopy                    
    1.000000000000000     
     2.1531640606670792    1.2431298500355656    7.7182051883300105
    -2.1531640606670792    1.2431298500355656    7.7182051883300105
     0.0000000000000001   -2.4862597000711313    7.7182051883300105
   Nd   Tl   Se
     1     1     2
Direct
  0.0000000000000000  0.0000000000000000  0.0000000000000000
  0.5000000000000000  0.5000000000000000  0.5000000000000000
  0.2625828544661033  0.2625828544661033  0.2625828544661033
  0.7374171455338967  0.7374171455338967  0.7374171455338967
