generated by phonopy                    
    1.000000000000000     
     2.2061202536451279    1.2737041223067000    7.5789749768728720
    -2.2061202536451279    1.2737041223067000    7.5789749768728720
    -0.0000000000000000   -2.5474082446134001    7.5789749768728720
   Na   Sb   Te
     1     1     2
Direct
  0.0000000000000000  0.0000000000000000  0.0000000000000000
  0.5000000000000000  0.5000000000000000  0.5000000000000000
  0.2441174178133565  0.2441174178133565  0.2441174178133565
  0.7558825821866435  0.7558825821866435  0.7558825821866435
