generated by phonopy                    
    1.000000000000000     
     2.0850195407488270    1.2037865931169653    7.7357682529307024
    -2.0850195407488274    1.2037865931169653    7.7357682529307024
     0.0000000000000000   -2.4075731862339302    7.7357682529307024
   Y    Tl   Se
     1     1     2
Direct
  0.5000000000000000  0.5000000000000000  0.5000000000000000
  0.0000000000000000  0.0000000000000000  0.0000000000000000
  0.7649334996363990  0.7649334996363990  0.7649334996363990
  0.2350665003636010  0.2350665003636010  0.2350665003636010
