generated by phonopy
   1.0
     3.3287593753715874   -1.9218616844008614    0.0000000000000000
     3.3287593753715874    1.9218616844008614    0.0000000000000000
    -0.0000066145856079    0.0000000000000000    6.8171367527916429
Tb Se O
   2    1    2
Direct
  0.3333688101166744  0.3332989367228478  0.7100225130914879
  0.6667010632771523  0.6666311898833257  0.2899774869085121
  0.0000636092133490  0.9999363907866510  0.0000000000000000
  0.3333657357771217  0.3332992183839991  0.3741350501403530
  0.6667007816160010  0.6666342642228784  0.6258649498596469
