generated by phonopy
   1.0
     4.2037123233259219    0.0000000000000000    0.0000000000000000
     0.0000000000000000    4.2037123233259219    0.0000000000000000
     0.0000000000000000    0.0000000000000000    7.2987371746756722
Sr Br F
   2    2    2
Direct
  0.0000000000000000  0.5000000000000000  0.8113499816983563
  0.5000000000000000  0.0000000000000000  0.1886500183016437
  0.5000000000000000  0.0000000000000000  0.6441396231727694
  0.0000000000000000  0.5000000000000000  0.3558603768272306
  0.5000000000000000  0.5000000000000000  0.0000000000000000
  0.0000000000000000  0.0000000000000000  0.0000000000000000
