generated by phonopy
   1.0
     4.3652663881614169    0.0000000000000000    0.0000000000000000
    -2.1826331940807084    3.7804315864341280    0.0000000000000000
     0.0000000000000000    0.0000000000000000    7.2764069993988532
Sr Cd P
   1    2    2
Direct
  0.0000000000000000  0.0000000000000000  0.0000000000000000
  0.3333333333333333  0.6666666666666666  0.6352517094236491
  0.6666666666666666  0.3333333333333334  0.3647482905763509
  0.6666666666666665  0.3333333333333333  0.7483131009052572
  0.3333333333333334  0.6666666666666667  0.2516868990947428
