generated by phonopy                    
    1.000000000000000     
     2.0695065123922096    1.1948301420193257    7.4149360665275301
    -2.0695065123922101    1.1948301420193257    7.4149360665275301
     0.0000000000000001   -2.3896602840386509    7.4149360665275301
   K    Bi   S 
     1     1     2
Direct
  0.5000000000000000  0.5000000000000000  0.5000000000000000
  0.0000000000000000  0.0000000000000000  0.0000000000000000
  0.7375675688270533  0.7375675688270533  0.7375675688270533
  0.2624324311729467  0.2624324311729467  0.2624324311729467
