generated by phonopy                    
    1.000000000000000     
     4.2293907079655106    0.0000000000000000    0.0000000000000000
    -2.1146953539827553    3.6627597956279838    0.0000000000000000
     0.0000000000000000    0.0000000000000000    4.9647839999999999
   Sr   Al   Si   H 
     1     1     1     1
Direct
 -0.0000000000000000  0.0000000000000000  0.0003956772673772
  0.6666666666666643  0.3333333333333357  0.4610579113640619
  0.3333333333333357  0.6666666666666643  0.5546811745450159
  0.6666666666666643  0.3333333333333357  0.1068652368235427
 
  0.00000000E+00  0.00000000E+00  0.00000000E+00
  0.00000000E+00  0.00000000E+00  0.00000000E+00
  0.00000000E+00  0.00000000E+00  0.00000000E+00
  0.00000000E+00  0.00000000E+00  0.00000000E+00
