generated by phonopy                    
    1.000000000000000     
    -0.0000000000000000    3.0004550400907304    3.0004550400907304
     3.0004550400907304   -0.0000000000000000    3.0004550400907304
     3.0004550400907304    3.0004550400907304   -0.0000000000000000
   Li   Mg   P 
     1     1     1
Direct
  0.7500000000000000  0.7500000000000000  0.7500000000000000
  0.2500000000000000  0.2500000000000000  0.2500000000000000
  0.0000000000000000  0.0000000000000000  0.0000000000000000
 
  0.00000000E+00  0.00000000E+00  0.00000000E+00
  0.00000000E+00  0.00000000E+00  0.00000000E+00
  0.00000000E+00  0.00000000E+00  0.00000000E+00
