generated by phonopy                    
    1.000000000000000     
     2.0098669849024637    1.1603972447687794    7.6427855660175625
    -2.0098669849024637    1.1603972447687794    7.6427855660175625
     0.0000000000000001   -2.3207944895375587    7.6427855660175625
   Rb   Er   S 
     1     1     2
Direct
 -0.0000000000000000 -0.0000000000000000 -0.0000000000000000
  0.5000000000000000  0.5000000000000000  0.5000000000000000
  0.7694330950257182  0.7694330950257182  0.7694330950257182
  0.2305669049742819  0.2305669049742819  0.2305669049742819
