generated by phonopy                    
    1.000000000000000     
     1.7388473993018330    1.0039240140665937    6.4675964499474095
    -1.7388473993018330    1.0039240140665937    6.4675964499474095
    -0.0000000000000000   -2.0078480281331874    6.4675964499474095
   Rb   Dy   O 
     1     1     2
Direct
  0.0000000000000000  0.0000000000000000  0.0000000000000000
  0.5000000000000000  0.5000000000000000  0.5000000000000000
  0.2258021250206284  0.2258021250206284  0.2258021250206284
  0.7741978749793716  0.7741978749793716  0.7741978749793716
