generated by phonopy                    
    1.000000000000000     
     0.0000000000000000    2.8340481299159803    2.8340481299159803
     2.8340481299159803    0.0000000000000000    2.8340481299159803
     2.8340481299159803    2.8340481299159803   -0.0000000000000000
   Be   Te
     1     1
Direct
  0.0000000000000000  0.0000000000000000  0.0000000000000000
  0.7500000000000000  0.7500000000000000  0.7500000000000000
 
  0.00000000E+00  0.00000000E+00  0.00000000E+00
  0.00000000E+00  0.00000000E+00  0.00000000E+00
