generated by phonopy                    
    1.000000000000000     
    -0.0000000000000000    3.9374249009067985    3.9374249009067985
     3.9374249009067985    0.0000000000000000    3.9374249009067985
     3.9374249009067985    3.9374249009067985    0.0000000000000000
   Sr   Sb   Au
     2     1     1
Direct
  0.2500000000000000  0.2500000000000000  0.2500000000000000
  0.7500000000000000  0.7500000000000000  0.7500000000000000
  0.0000000000000000  0.0000000000000000  0.0000000000000000
  0.5000000000000000  0.5000000000000000  0.5000000000000000
 
  0.00000000E+00  0.00000000E+00  0.00000000E+00
  0.00000000E+00  0.00000000E+00  0.00000000E+00
  0.00000000E+00  0.00000000E+00  0.00000000E+00
  0.00000000E+00  0.00000000E+00  0.00000000E+00
