generated by phonopy                    
    1.000000000000000     
     1.8357303386744519    1.0598594051932575    6.5291185196363966
    -1.8357303386744521    1.0598594051932575    6.5291185196363966
     0.0000000000000001   -2.1197188103865150    6.5291185196363966
   Rb   Pr   O 
     1     1     2
Direct
  0.0000000000000000  0.0000000000000000  0.0000000000000000
  0.5000000000000000  0.5000000000000000  0.5000000000000000
  0.7717955885531893  0.7717955885531893  0.7717955885531893
  0.2282044114468107  0.2282044114468107  0.2282044114468107
