generated by phonopy                    
    1.000000000000000     
     1.8457214555407098    1.0656277792054965    6.0908139196412083
    -1.8457214555407100    1.0656277792054965    6.0908139196412083
     0.0000000000000001   -2.1312555584109929    6.0908139196412083
   Li   Sc   S 
     1     1     2
Direct
  0.0000000000000000  0.0000000000000000  0.0000000000000000
  0.5000000000000000  0.5000000000000000  0.5000000000000000
  0.7530112659548962  0.7530112659548962  0.7530112659548962
  0.2469887340451038  0.2469887340451038  0.2469887340451038
 
  0.00000000E+00  0.00000000E+00  0.00000000E+00
  0.00000000E+00  0.00000000E+00  0.00000000E+00
  0.00000000E+00  0.00000000E+00  0.00000000E+00
  0.00000000E+00  0.00000000E+00  0.00000000E+00
