generated by phonopy                    
    1.000000000000000     
     1.8753700525151309    1.0827454046497735    6.8656046109364945
    -1.8753700525151311    1.0827454046497735    6.8656046109364945
     0.0000000000000001   -2.1654908092995471    6.8656046109364945
   Sc   Ag   S 
     1     1     2
Direct
  0.0001375626203116  0.0001375626203116  0.0001375626203116
  0.1504918062017193  0.1504918062017193  0.1504918062017193
  0.2680978946327708  0.2680978946327708  0.2680978946327708
  0.7402737365452018  0.7402737365451947  0.7402737365451947
 
  0.00000000E+00  0.00000000E+00  0.00000000E+00
  0.00000000E+00  0.00000000E+00  0.00000000E+00
  0.00000000E+00  0.00000000E+00  0.00000000E+00
  0.00000000E+00  0.00000000E+00  0.00000000E+00
