generated by phonopy                    
    1.000000000000000     
     2.1350139512880575    1.2326508794997670    7.9678624624012926
    -2.1350139512880579    1.2326508794997670    7.9678624624012926
     0.0000000000000001   -2.4653017589995336    7.9678624624012926
   Rb   Gd   Se
     1     1     2
Direct
  0.0000000000000000  0.0000000000000000  0.0000000000000000
  0.5000000000000000  0.5000000000000000  0.5000000000000000
  0.7674875219951858  0.7674875219951858  0.7674875219951858
  0.2325124780048142  0.2325124780048142  0.2325124780048142
 
  0.00000000E+00  0.00000000E+00  0.00000000E+00
  0.00000000E+00  0.00000000E+00  0.00000000E+00
  0.00000000E+00  0.00000000E+00  0.00000000E+00
  0.00000000E+00  0.00000000E+00  0.00000000E+00
