generated by phonopy                    
    1.000000000000000     
     2.0647997886059195    1.1921127137743102    7.3330750973038823
    -2.0647997886059195    1.1921127137743102    7.3330750973038823
    -0.0000000000000001   -2.3842254275486203    7.3330750973038823
   K    Sm   S 
     1     1     2
Direct
  0.5000000000000000  0.5000000000000000  0.5000000000000000
  0.0000000000000000  0.0000000000000000  0.0000000000000000
  0.7355524445208985  0.7355524445208985  0.7355524445208985
  0.2644475554791015  0.2644475554791015  0.2644475554791015
 
  0.00000000E+00  0.00000000E+00  0.00000000E+00
  0.00000000E+00  0.00000000E+00  0.00000000E+00
  0.00000000E+00  0.00000000E+00  0.00000000E+00
  0.00000000E+00  0.00000000E+00  0.00000000E+00
