generated by phonopy                    
    1.000000000000000     
     0.0000000000000000    2.9442609370950663    2.9442609370950663
     2.9442609370950663    0.0000000000000000    2.9442609370950663
     2.9442609370950663    2.9442609370950663    0.0000000000000000
   Ta   Al   Fe
     1     1     2
Direct
  0.0000000000000000  0.0000000000000000  0.0000000000000000
  0.5000000000000000  0.5000000000000000  0.5000000000000000
  0.2500000000000000  0.2500000000000000  0.2500000000000000
  0.7500000000000000  0.7500000000000000  0.7500000000000000
