generated by phonopy                    
    1.000000000000000     
     2.0006956649373255    1.1551021807180819    6.6021220175444979
    -2.0006956649373255    1.1551021807180819    6.6021220175444979
     0.0000000000000001   -2.3102043614361643    6.6021220175444979
   Na   Gd   S 
     1     1     2
Direct
  0.5000000000000000  0.5000000000000000  0.5000000000000000
  0.0000000000000000  0.0000000000000000  0.0000000000000000
  0.7437575379983201  0.7437575379983201  0.7437575379983201
  0.2562424620016799  0.2562424620016799  0.2562424620016799
