generated by phonopy                    
    1.000000000000000     
     1.8745482252258352    1.0822709224430707    6.5512862178897100
    -1.8745482252258354    1.0822709224430707    6.5512862178897100
    -0.0000000000000001   -2.1645418448861413    6.5512862178897100
   Na   Sc   S 
     1     1     2
Direct
  0.5000000000000000  0.5000000000000000  0.5000000000000000
  0.0000000000000000  0.0000000000000000  0.0000000000000000
  0.7394608624234138  0.7394608624234138  0.7394608624234138
  0.2605391375765862  0.2605391375765862  0.2605391375765862
 
  0.00000000E+00  0.00000000E+00  0.00000000E+00
  0.00000000E+00  0.00000000E+00  0.00000000E+00
  0.00000000E+00  0.00000000E+00  0.00000000E+00
  0.00000000E+00  0.00000000E+00  0.00000000E+00
