generated by phonopy
   1.0
     3.9156876219898971    0.0000000000000000    0.0000000000000000
     0.0000000000000000    3.9156876219898971    0.0000000000000000
     0.0000000000000000    0.0000000000000000    6.9087017880667378
Nd S F
   2    2    2
Direct
  0.0000000000000000  0.5000000000000000  0.7701393473492427
  0.5000000000000000  0.0000000000000000  0.2298606526507570
  0.5000000000000000  0.0000000000000000  0.6463157754105848
  0.0000000000000000  0.5000000000000000  0.3536842245894150
  0.5000000000000000  0.5000000000000000  0.0000000000000000
  0.0000000000000000  0.0000000000000000  0.0000000000000000
