generated by phonopy                    
    1.000000000000000     
    -2.0650705483133529    3.0038531545872651    3.5054332929275445
     2.0650705483133529   -3.0038531545872651    3.5054332929275445
     2.0650705483133529    3.0038531545872651   -3.5054332929275445
   Rb   O 
     2     2
Direct
  0.2527745183135863  0.2527745183135863  0.0000000000000000
  0.7472254816864137  0.7472254816864137  0.0000000000000000
  0.6262763039584343  0.0000000000000000  0.6262763039584343
  0.3737236960415657  0.0000000000000000  0.3737236960415657
 
  0.00000000E+00  0.00000000E+00  0.00000000E+00
  0.00000000E+00  0.00000000E+00  0.00000000E+00
  0.00000000E+00  0.00000000E+00  0.00000000E+00
  0.00000000E+00  0.00000000E+00  0.00000000E+00
