generated by phonopy                    
    1.000000000000000     
     1.7288704486041873    0.9981638188956166    6.4664596645677177
    -1.7288704486041875    0.9981638188956166    6.4664596645677177
     0.0000000000000000   -1.9963276377912331    6.4664596645677177
   Rb   Ho   O 
     1     1     2
Direct
  0.0000000000000000  0.0000000000000000  0.0000000000000000
  0.5000000000000000  0.5000000000000000  0.5000000000000000
  0.2255621235534591  0.2255621235534591  0.2255621235534591
  0.7744378764465409  0.7744378764465409  0.7744378764465409
