generated by phonopy                    
    1.000000000000000     
     2.0980660609143640    1.2113190050465261    7.9585049397349241
    -2.0980660609143644    1.2113190050465261    7.9585049397349241
     0.0000000000000001   -2.4226380100930522    7.9585049397349241
   Rb   Er   Se
     1     1     2
Direct
  0.0000000000000000  0.0000000000000000  0.0000000000000000
  0.5000000000000000  0.5000000000000000  0.5000000000000000
  0.2314932102482530  0.2314932102482530  0.2314932102482530
  0.7685067897517470  0.7685067897517470  0.7685067897517470
