generated by phonopy                    
    1.000000000000000     
     2.1997423946185917    1.2700218636808758    7.4839937485655694
    -2.1997423946185917    1.2700218636808758    7.4839937485655694
    -0.0000000000000000   -2.5400437273617515    7.4839937485655694
   Ca   As   I 
     2     1     1
Direct
  0.2312069225352005  0.2312069225352005  0.2312069225352005
  0.7687930774647995  0.7687930774647995  0.7687930774647995
  0.5000000000000000  0.5000000000000000  0.5000000000000000
  0.0000000000000000  0.0000000000000000  0.0000000000000000
 
  0.00000000E+00  0.00000000E+00  0.00000000E+00
  0.00000000E+00  0.00000000E+00  0.00000000E+00
  0.00000000E+00  0.00000000E+00  0.00000000E+00
  0.00000000E+00  0.00000000E+00  0.00000000E+00
