generated by phonopy                    
    1.000000000000000     
     2.1214940580997741    1.2248451655280963    7.6758184626789960
    -2.1214940580997745    1.2248451655280963    7.6758184626789960
     0.0000000000000000   -2.4496903310561922    7.6758184626789960
   Rb   Pr   S 
     1     1     2
Direct
  0.0000000000000000  0.0000000000000000  0.0000000000000000
  0.5000000000000000  0.5000000000000000  0.5000000000000000
  0.2331363806892810  0.2331363806892810  0.2331363806892810
  0.7668636193107190  0.7668636193107190  0.7668636193107190
 
  0.00000000E+00  0.00000000E+00  0.00000000E+00
  0.00000000E+00  0.00000000E+00  0.00000000E+00
  0.00000000E+00  0.00000000E+00  0.00000000E+00
  0.00000000E+00  0.00000000E+00  0.00000000E+00
