generated by phonopy                    
    1.000000000000000     
     0.0000000000000000    2.7503849271278242    2.7503849271278242
     2.7503849271278242    0.0000000000000000    2.7503849271278242
     2.7503849271278242    2.7503849271278242   -0.0000000000000000
   Al   P 
     1     1
Direct
  0.0000000000000000  0.0000000000000000  0.0000000000000000
  0.7500000000000000  0.7500000000000000  0.7500000000000000
 
  0.00000000E+00  0.00000000E+00  0.00000000E+00
  0.00000000E+00  0.00000000E+00  0.00000000E+00
