generated by phonopy                    
    1.000000000000000     
     2.1515802375708439    1.2422154293446053    6.9302028600000058
    -2.1515802375708439    1.2422154293446053    6.9302028600000058
     0.0000000000000001   -2.4844308586892105    6.9302028600000058
   Na   Pr   Se
     1     1     2
Direct
  0.5000000000000000  0.5000000000000000  0.5000000000000000
  0.0000000000000000  0.0000000000000000  0.0000000000000000
  0.7467332800000008  0.7467332800000008  0.7467332800000008
  0.2532667199999992  0.2532667199999992  0.2532667199999992
 
  0.00000000E+00  0.00000000E+00  0.00000000E+00
  0.00000000E+00  0.00000000E+00  0.00000000E+00
  0.00000000E+00  0.00000000E+00  0.00000000E+00
  0.00000000E+00  0.00000000E+00  0.00000000E+00
