generated by phonopy
   1.0
     5.3094226818979235    0.0000000000000000    0.0000000000000000
     0.0000000000000000    5.3094226818979235    0.0000000000000000
     0.0000000000000000    0.0000000000000000    5.3094226818979235
Au S
   4    2
Direct
  0.2500000000000000  0.2500000000000000  0.7500000000000000
  0.7500000000000000  0.2500000000000000  0.2500000000000000
  0.2500000000000000  0.7500000000000000  0.2500000000000000
  0.7500000000000000  0.7500000000000000  0.7500000000000000
  0.0000000000000000  0.0000000000000000  0.0000000000000000
  0.5000000000000000  0.5000000000000000  0.5000000000000000
