generated by phonopy                    
    1.000000000000000     
     2.2044305415461705    1.2727285665715138    8.1700355171624679
    -2.2044305415461705    1.2727285665715138    8.1700355171624679
     0.0000000000000001   -2.5454571331430276    8.1700355171624679
   Er   Tl   Te
     1     1     2
Direct
  0.0000000000000000  0.0000000000000000  0.0000000000000000
  0.5000000000000000  0.5000000000000000  0.5000000000000000
  0.7373061061395774  0.7373061061395774  0.7373061061395774
  0.2626938938604226  0.2626938938604226  0.2626938938604226
