generated by phonopy                    
    1.000000000000000     
    -0.0000000000000000    2.9860521988714090    2.9860521988714090
     2.9860521988714090    0.0000000000000000    2.9860521988714090
     2.9860521988714090    2.9860521988714090    0.0000000000000000
   Li   Zn   As
     1     1     1
Direct
  0.7500000000000000  0.7500000000000000  0.7500000000000000
  0.2500000000000000  0.2500000000000000  0.2500000000000000
  0.0000000000000000  0.0000000000000000  0.0000000000000000
 
  0.00000000E+00  0.00000000E+00  0.00000000E+00
  0.00000000E+00  0.00000000E+00  0.00000000E+00
  0.00000000E+00  0.00000000E+00  0.00000000E+00
