generated by phonopy                    
    1.000000000000000     
     3.1972545843529621   -0.0000000000000000    0.0000000000000000
    -1.5986272921764810    2.7689036924159209    0.0000000000000000
     0.0000000000000000    0.0000000000000000    5.2072092985605440
   Ga   N 
     2     2
Direct
  0.6666666666666643  0.3333333333333357  0.4991142991002278
  0.3333333333333357  0.6666666666666643  0.9991142991002278
  0.6666666666666643  0.3333333333333357  0.8758857008997722
  0.3333333333333357  0.6666666666666643  0.3758857008997722
 
  0.00000000E+00  0.00000000E+00  0.00000000E+00
  0.00000000E+00  0.00000000E+00  0.00000000E+00
  0.00000000E+00  0.00000000E+00  0.00000000E+00
  0.00000000E+00  0.00000000E+00  0.00000000E+00
