generated by phonopy                    
    1.000000000000000     
     3.8500703247270760    0.0000000000000000    0.0000000000000000
    -1.9250351623635380    3.3342587075702506    0.0000000000000000
     0.0000000000000000    0.0000000000000000    3.9189017594542896
   Tb   H    Se
     1     1     1
Direct
  0.0000000000000000  0.0000000000000000  0.0000000000000000
  0.3333333333333357  0.6666666666666643  0.0000000000000000
  0.6666666666666643  0.3333333333333357  0.5000000000000000
 
  0.00000000E+00  0.00000000E+00  0.00000000E+00
  0.00000000E+00  0.00000000E+00  0.00000000E+00
  0.00000000E+00  0.00000000E+00  0.00000000E+00
