generated by phonopy                    
    1.000000000000000     
     3.2462498558490283   -1.5151032289733777   -0.0087727848081726
     3.2462498558490283    1.5151032289733777   -0.0087727848081726
    -2.8770738889067715    0.0000000000000000    5.3875687326209478
   Na   Au   O 
     1     1     2
Direct
  0.5000000000000000  0.5000000000000000  0.5000000000000000
  0.5000000000000000  0.5000000000000000  0.0000000000000000
  0.0898962780241703  0.0898962780241703  0.2488261067301423
  0.9101037219758297  0.9101037219758297  0.7511738932698577
 
  0.00000000E+00  0.00000000E+00  0.00000000E+00
  0.00000000E+00  0.00000000E+00  0.00000000E+00
  0.00000000E+00  0.00000000E+00  0.00000000E+00
  0.00000000E+00  0.00000000E+00  0.00000000E+00
