generated by phonopy                    
    1.000000000000000     
    -0.0000000000000000    3.3431536702286855    3.3431536702286855
     3.3431536702286855   -0.0000000000000000    3.3431536702286855
     3.3431536702286855    3.3431536702286855    0.0000000000000000
   K    Br
     1     1
Direct
  0.0000000000000000  0.0000000000000000  0.0000000000000000
  0.5000000000000000  0.5000000000000000  0.5000000000000000
 
  0.00000000E+00  0.00000000E+00  0.00000000E+00
  0.00000000E+00  0.00000000E+00  0.00000000E+00
