generated by phonopy
   1.0
     5.1260781847948458    0.0000000000000000    0.0000000000000000
     0.0000000000000000    5.8988458977655043    0.0000000000000000
     0.0000000000000000    0.0000000000000000    2.8862388152311751
P Ru
   4    2
Direct
  0.3377787681808542  0.8725686619197358  0.4999999999999999
  0.6622212318191458  0.1274313380802639  0.4999999999999999
  0.1622212318191458  0.3725686619197361  0.0000000000000000
  0.8377787681808542  0.6274313380802639  0.0000000000000000
  0.5000000000000000  0.4999999999999999  0.4999999999999999
  0.0000000000000000  0.0000000000000000  0.0000000000000000
