generated by phonopy
   1.0
     3.8249623600066913   -2.2082596900004892    0.0000000000000000
     3.8249623600066913    2.2082596900004892    0.0000000000000000
    -0.0000257287536522    0.0000000000000000    7.4151476499665332
Sr Mg As
   1    2    2
Direct
  0.0000000000000000  0.0000000000000000  0.4999999999999999
  0.6666628988131131  0.6666628988131131  0.1287131989471182
  0.3333371011868869  0.3333371011868869  0.8712868010528816
  0.3333351029836965  0.3333351029836965  0.2390871979932436
  0.6666648970163035  0.6666648970163035  0.7609128020067562
