generated by phonopy
   1.0
    -1.7827231945589821    1.7827231945589821    6.2856085275494626
     1.7827231945589821   -1.7827231945589821    6.2856085275494626
     1.7827231945589821    1.7827231945589821   -6.2856085275494626
Ca Zn N
   2    1    2
Direct
  0.6629727454957539  0.6629727454957539  0.0000000000000000
  0.3370272545042461  0.3370272545042461  0.0000000000000000
  0.0000000000000000  0.0000000000000000  0.0000000000000000
  0.8535812045785143  0.8535812045785143  0.0000000000000000
  0.1464187954214857  0.1464187954214857  0.0000000000000000
