generated by phonopy                    
    1.000000000000000     
     1.9785171110939943    1.1422973866863981    6.5910274016161594
    -1.9785171110939943    1.1422973866863981    6.5910274016161594
     0.0000000000000000   -2.2845947733727963    6.5910274016161594
   Na   Y    S 
     1     1     2
Direct
  0.0000000000000000  0.0000000000000000  0.0000000000000000
  0.5000000000000000  0.5000000000000000  0.5000000000000000
  0.2432359914115025  0.2432359914115025  0.2432359914115025
  0.7567640085884975  0.7567640085884975  0.7567640085884975
 
  0.00000000E+00  0.00000000E+00  0.00000000E+00
  0.00000000E+00  0.00000000E+00  0.00000000E+00
  0.00000000E+00  0.00000000E+00  0.00000000E+00
  0.00000000E+00  0.00000000E+00  0.00000000E+00
