generated by phonopy
   1.0
     4.1428533002677126    0.0000000000000000    0.0000000000000000
     0.0000000000000000    4.1428533002677126    0.0000000000000000
     0.0000000000000000    0.0000000000000000    9.4028235994995786
La I O
   2    2    2
Direct
  0.0000000000000000  0.5000000000000000  0.8728318332564484
  0.5000000000000000  0.0000000000000000  0.1271681667435516
  0.5000000000000000  0.0000000000000000  0.6710804113838407
  0.0000000000000000  0.5000000000000000  0.3289195886161593
  0.0000000000000000  0.0000000000000000  0.0000000000000000
  0.5000000000000000  0.5000000000000000  0.0000000000000000
