generated by phonopy                    
    1.000000000000000     
     2.2446518607945185    1.2959503560667094    7.5967094378005724
    -2.2446518607945185    1.2959503560667094    7.5967094378005724
    -0.0000000000000001   -2.5919007121334188    7.5967094378005724
   Na   Bi   Te
     1     1     2
Direct
  0.5000000000000000  0.5000000000000000  0.5000000000000000
  0.0000000000000000  0.0000000000000000 -0.0000000000000000
  0.2538548606610146  0.2538548606610146  0.2538548606610146
  0.7461451393389854  0.7461451393389854  0.7461451393389854
