generated by phonopy
   1.0
     4.3881608341082643    0.0000000000000000    0.0000000000000000
     0.0000000000000000    4.3881608341082643    0.0000000000000000
     0.0000000000000000    0.0000000000000000    7.2192308486745649
Ba H Cl
   2    2    2
Direct
  0.0000000000000000  0.5000000000000000  0.7922564794634468
  0.5000000000000000  0.0000000000000000  0.2077435205365532
  0.5000000000000000  0.5000000000000000  0.0000000000000000
  0.0000000000000000  0.0000000000000000  0.0000000000000000
  0.5000000000000000  0.0000000000000000  0.6538050274145348
  0.0000000000000000  0.5000000000000000  0.3461949725854652
