generated by phonopy                    
    1.000000000000000     
     2.2313708164331469    1.2882825415295525    8.2593050305016185
    -2.2313708164331469    1.2882825415295525    8.2593050305016185
     0.0000000000000001   -2.5765650830591049    8.2593050305016185
   K    Er   Te
     1     1     2
Direct
  0.5000000000000000  0.5000000000000000  0.5000000000000000
  0.0000000000000000  0.0000000000000000  0.0000000000000000
  0.7354236580074343  0.7354236580074343  0.7354236580074343
  0.2645763419925657  0.2645763419925657  0.2645763419925657
 
  0.00000000E+00  0.00000000E+00  0.00000000E+00
  0.00000000E+00  0.00000000E+00  0.00000000E+00
  0.00000000E+00  0.00000000E+00  0.00000000E+00
  0.00000000E+00  0.00000000E+00  0.00000000E+00
