generated by phonopy                    
    1.000000000000000     
     2.0009651959213519    1.1552577945042644    7.5093047316101318
    -2.0009651959213519    1.1552577945042644    7.5093047316101318
    -0.0000000000000000   -2.3105155890085292    7.5093047316101318
   Ho   Tl   S 
     1     1     2
Direct
  0.0000000000000000  0.0000000000000000  0.0000000000000000
  0.5000000000000000  0.5000000000000000  0.5000000000000000
  0.7324534618319234  0.7324534618319234  0.7324534618319234
  0.2675465381680766  0.2675465381680766  0.2675465381680766
 
  0.00000000E+00  0.00000000E+00  0.00000000E+00
  0.00000000E+00  0.00000000E+00  0.00000000E+00
  0.00000000E+00  0.00000000E+00  0.00000000E+00
  0.00000000E+00  0.00000000E+00  0.00000000E+00
