generated by phonopy
   1.0
     1.8936129063965397    1.0932779212489918    6.2865771675504281
    -1.8936129063965401    1.0932779212489918    6.2865771675504281
     0.0000000000000002   -2.1865558424979836    6.2865771675504281
Tb O F
   2    2    2
Direct
  0.7416405806353623  0.7416405806353623  0.7416405806353623
  0.2583594193646377  0.2583594193646377  0.2583594193646377
  0.6214587348578653  0.6214587348578651  0.6214587348578652
  0.3785412651421349  0.3785412651421349  0.3785412651421347
  0.1302913646042801  0.1302913646042801  0.1302913646042801
  0.8697086353957199  0.8697086353957200  0.8697086353957200
