generated by phonopy
   1.0
     4.4341915967760297    0.0000000000000000    0.0000000000000000
    -2.2170957983880148    3.8401225680555258    0.0000000000000000
     0.0000000000000000    0.0000000000000000    7.5920755018954491
Ba Cd P
   1    2    2
Direct
  0.0000000000000000  0.0000000000000000  0.0000000000000000
  0.6666666666666666  0.3333333333333333  0.3688500900592188
  0.3333333333333334  0.6666666666666667  0.6311499099407814
  0.6666666666666666  0.3333333333333333  0.7344062614159627
  0.3333333333333334  0.6666666666666667  0.2655937385840375
