generated by phonopy
   1.0
     4.0453900220859209    0.0000000000000000    0.0000000000000000
     0.0000000000000000    4.0453900220859209    0.0000000000000000
     0.0000000000000000    0.0000000000000000    6.7743202293316882
Nd Cl O
   2    2    2
Direct
  0.0000000000000000  0.4999999999999999  0.8251952901141166
  0.4999999999999999  0.0000000000000000  0.1748047098858834
  0.4999999999999999  0.0000000000000000  0.6266126477988649
  0.0000000000000000  0.4999999999999999  0.3733873522011351
  0.0000000000000000  0.0000000000000000  0.0000000000000000
  0.4999999999999999  0.4999999999999999  0.0000000000000000
