generated by phonopy                    
    1.000000000000000     
     1.4236417108044506    0.8219399249625293    5.6772413655028338
    -1.4236417108044506    0.8219399249625293    5.6772413655028338
     0.0000000000000002   -1.6438798499250586    5.6772413655028338
   Al   Cu   O 
     1     1     2
Direct
  0.5000000000000000  0.5000000000000000  0.5000000000000000
  0.0000000000000000  0.0000000000000000  0.0000000000000000
  0.8902100289420076  0.8902100289420076  0.8902100289420076
  0.1097899710579924  0.1097899710579924  0.1097899710579924
 
  0.00000000E+00  0.00000000E+00  0.00000000E+00
  0.00000000E+00  0.00000000E+00  0.00000000E+00
  0.00000000E+00  0.00000000E+00  0.00000000E+00
  0.00000000E+00  0.00000000E+00  0.00000000E+00
