generated by phonopy                    
    1.000000000000000     
     2.0177950107497598    1.1649744926258574    6.4435545815895683
    -2.0177950107497598    1.1649744926258574    6.4435545815895683
     0.0000000000000000   -2.3299489852517148    6.4435545815895683
   Li   Ho   Se
     1     1     2
Direct
  0.5000000000000000  0.5000000000000000  0.5000000000000000
 -0.0000000000000000 -0.0000000000000000 -0.0000000000000000
  0.7513751638696885  0.7513751638696885  0.7513751638696885
  0.2486248361303115  0.2486248361303115  0.2486248361303115
