generated by phonopy                    
    1.000000000000000     
     0.0000000000000000    3.3705330187516709    3.3705330187516709
     3.3705330187516709    0.0000000000000000    3.3705330187516709
     3.3705330187516709    3.3705330187516709   -0.0000000000000000
   Na   Se
     2     1
Direct
  0.2500000000000000  0.2500000000000000  0.2500000000000000
  0.7500000000000000  0.7500000000000000  0.7500000000000000
  0.0000000000000000  0.0000000000000000 -0.0000000000000000
 
  0.00000000E+00  0.00000000E+00  0.00000000E+00
  0.00000000E+00  0.00000000E+00  0.00000000E+00
  0.00000000E+00  0.00000000E+00  0.00000000E+00
