generated by phonopy                    
    1.000000000000000     
     1.7236071960157442    0.9951250785968657    6.1621248914135531
    -1.7236071960157442    0.9951250785968657    6.1621248914135531
    -0.0000000000000001   -1.9902501571937314    6.1621248914135531
   K    Y    O 
     1     1     2
Direct
  0.0000000000000000  0.0000000000000000  0.0000000000000000
  0.5000000000000000  0.5000000000000000  0.5000000000000000
  0.2291782622814580  0.2291782622814580  0.2291782622814580
  0.7708217377185420  0.7708217377185420  0.7708217377185420
 
  0.00000000E+00  0.00000000E+00  0.00000000E+00
  0.00000000E+00  0.00000000E+00  0.00000000E+00
  0.00000000E+00  0.00000000E+00  0.00000000E+00
  0.00000000E+00  0.00000000E+00  0.00000000E+00
