generated by phonopy                    
    1.000000000000000     
     4.3780414883216903    0.0000000000000000    0.0000000000000000
    -2.1890207441608451    3.7914951477088157    0.0000000000000000
     0.0000000000000000    0.0000000000000000    5.2695590000000001
   Ba   Ga   Ge   H 
     1     1     1     1
Direct
  0.3333333333333357  0.6666666666666643  0.0002300355584070
  0.0000000000000000 -0.0000000000000000  0.5497093029666683
  0.6666666666666643  0.3333333333333357  0.4466985855141770
  0.0000000000000000 -0.0000000000000000  0.8832620759607470
 
  0.00000000E+00  0.00000000E+00  0.00000000E+00
  0.00000000E+00  0.00000000E+00  0.00000000E+00
  0.00000000E+00  0.00000000E+00  0.00000000E+00
  0.00000000E+00  0.00000000E+00  0.00000000E+00
