generated by phonopy                    
    1.000000000000000     
     2.3999318668979659   -1.4956181017084129    0.0020025128024287
     2.3999318668979659    1.4956181017084129    0.0020025128024287
    -0.5220617270025179    0.0000000000000000    6.3700236036567350
   F 
     4
Direct
  0.6004874092086850  0.9109750735993610  0.6030313302428368
  0.0890249264006391  0.3995125907913150  0.8969686697571632
  0.3995125907913150  0.0890249264006391  0.3969686697571632
  0.9109750735993610  0.6004874092086850  0.1030313302428369
 
  0.00000000E+00  0.00000000E+00  0.00000000E+00
  0.00000000E+00  0.00000000E+00  0.00000000E+00
  0.00000000E+00  0.00000000E+00  0.00000000E+00
  0.00000000E+00  0.00000000E+00  0.00000000E+00
