generated by phonopy
   1.0
     4.1068094357333518    0.0000000000000000    0.0000000000000000
     0.0000000000000000    4.1068094357333518    0.0000000000000000
     0.0000000000000000    0.0000000000000000    6.9098670182845607
La Cl O
   2    2    2
Direct
  0.0000000000000000  0.5000000000000000  0.8244340647962428
  0.5000000000000000  0.0000000000000000  0.1755659352037569
  0.5000000000000000  0.0000000000000000  0.6301497801364133
  0.0000000000000000  0.5000000000000000  0.3698502198635865
  0.0000000000000000  0.0000000000000000  0.0000000000000000
  0.5000000000000000  0.5000000000000000  0.0000000000000000
