generated by phonopy                    
    1.000000000000000     
     3.2795416740109382    0.0000000000000000    0.0000000000000000
    -1.6397708370054691    2.8401664024632169    0.0000000000000000
     0.0000000000000000    0.0000000000000000    5.2848843282785891
   Zr   Zn   N 
     1     1     2
Direct
 -0.0000000000000000  0.0000000000000000  0.0027850659547565
  0.6666666666666643  0.3333333333333357  0.4499413873975822
  0.3333333333333357  0.6666666666666643  0.2596661751458368
  0.6666666666666643  0.3333333333333357  0.8175773815018240
 
  0.00000000E+00  0.00000000E+00  0.00000000E+00
  0.00000000E+00  0.00000000E+00  0.00000000E+00
  0.00000000E+00  0.00000000E+00  0.00000000E+00
  0.00000000E+00  0.00000000E+00  0.00000000E+00
