generated by phonopy                    
    1.000000000000000     
     1.9545756520187842    1.1284747788445337    6.1571251991138922
    -1.9545756520187845    1.1284747788445337    6.1571251991138922
     0.0000000000000003   -2.2569495576890670    6.1571251991138922
   Li   Dy   S 
     1     1     2
Direct
  0.5000000000000000  0.5000000000000000  0.5000000000000000
  0.0000000000000000  0.0000000000000000  0.0000000000000000
  0.2496599186878257  0.2496599186878257  0.2496599186878257
  0.7503400813121743  0.7503400813121743  0.7503400813121743
 
  0.00000000E+00  0.00000000E+00  0.00000000E+00
  0.00000000E+00  0.00000000E+00  0.00000000E+00
  0.00000000E+00  0.00000000E+00  0.00000000E+00
  0.00000000E+00  0.00000000E+00  0.00000000E+00
