generated by phonopy
   1.0
     4.0971983220679258    0.0000000000000000    0.0000000000000000
    -2.0485991610339629    3.5482778312537988    0.0000000000000000
     0.0000000000000000    0.0000000000000000    7.0968857563606562
Sr Zn P
   1    2    2
Direct
  0.0000000000000000  0.0000000000000000  0.0000000000000000
  0.6666666666666665  0.3333333333333333  0.3697800199426309
  0.3333333333333334  0.6666666666666667  0.6302199800573689
  0.6666666666666665  0.3333333333333333  0.7262857652668513
  0.3333333333333334  0.6666666666666667  0.2737142347331485
