generated by phonopy                    
    1.000000000000000     
     0.0000000000000000    3.0898820863650704    3.0898820863650704
     3.0898820863650704   -0.0000000000000000    3.0898820863650704
     3.0898820863650704    3.0898820863650704   -0.0000000000000000
   Zr   Si   Ru
     1     1     2
Direct
  0.0000000000000000  0.0000000000000000  0.0000000000000000
  0.5000000000000000  0.5000000000000000  0.5000000000000000
  0.2500000000000000  0.2500000000000000  0.2500000000000000
  0.7500000000000000  0.7500000000000000  0.7500000000000000
 
  0.00000000E+00  0.00000000E+00  0.00000000E+00
  0.00000000E+00  0.00000000E+00  0.00000000E+00
  0.00000000E+00  0.00000000E+00  0.00000000E+00
  0.00000000E+00  0.00000000E+00  0.00000000E+00
