generated by phonopy
   1.0
     5.4559179138186042    0.0000000000000000    0.0000000000000000
     0.0000000000000000    6.2020958913459365    0.0000000000000000
     0.0000000000000000    0.0000000000000000    2.9839028129767944
As Ru
   4    2
Direct
  0.3295251422364983  0.8651776824357498  0.4999999999999999
  0.6704748577635016  0.1348223175642502  0.4999999999999999
  0.1704748577635017  0.3651776824357498  0.0000000000000000
  0.8295251422364981  0.6348223175642502  0.0000000000000000
  0.4999999999999999  0.5000000000000000  0.4999999999999999
  0.0000000000000000  0.0000000000000000  0.0000000000000000
