generated by phonopy
   1.0
     4.7867850664019063    0.0000000000000000    0.0000000000000000
     0.0000000000000000    4.7867850664019063    0.0000000000000000
     0.0000000000000000    0.0000000000000000    7.8472373023512159
Cs Na S
   2    2    2
Direct
  0.5000000000000000  0.0000000000000000  0.6501543793062083
  0.0000000000000000  0.5000000000000000  0.3498456206937917
  0.5000000000000000  0.5000000000000000  0.0000000000000000
  0.0000000000000000  0.0000000000000000  0.0000000000000000
  0.0000000000000000  0.5000000000000000  0.8064642959206623
  0.5000000000000000  0.0000000000000000  0.1935357040793377
