generated by phonopy
   1.0
    -1.5754581003882653    2.2757507030035997    4.7145136864814665
     1.5754581003882653   -2.2757507030035997    4.7145136864814665
     1.5754581003882653    2.2757507030035997   -4.7145136864814665
Na Pt O
   2    1    2
Direct
  0.6737874118752460  0.6737874118752460  0.0000000000000000
  0.3262125881247544  0.3262125881247542  0.0000000000000002
  0.0000000000000000  0.0000000000000000  0.0000000000000000
  0.8594932982346750  0.3594932982346750  0.5000000000000000
  0.1405067017653256  0.6405067017653253  0.5000000000000002
