generated by phonopy
   1.0
     4.4888033314656255    0.0000000000000000    0.0000000000000000
     0.0000000000000000    4.4888033314656255    0.0000000000000000
     0.0000000000000000    0.0000000000000000    8.2837350936982368
Pr Te Cl
   2    2    2
Direct
  0.0000000000000000  0.5000000000000000  0.7607782976701639
  0.5000000000000000  0.0000000000000000  0.2392217023298358
  0.0000000000000000  0.5000000000000000  0.3658008804833768
  0.5000000000000000  0.0000000000000000  0.6341991195166230
  0.0000000000000000  0.0000000000000000  0.0000000000000000
  0.5000000000000000  0.5000000000000000  0.0000000000000000
