generated by phonopy
   1.0
     3.8358569125351440    0.0000000000000000    0.0000000000000000
    -1.9179284562675720    3.3219495315375771    0.0000000000000000
     0.0000000000000000    0.0000000000000000    6.6351996472233647
Gd S O
   2    1    2
Direct
  0.6666666666666666  0.3333333333333334  0.7188942672224101
  0.3333333333333334  0.6666666666666669  0.2811057327775899
  0.0000000000000000  0.0000000000000000  0.0000000000000000
  0.3333333333333334  0.6666666666666667  0.6296750647231164
  0.6666666666666667  0.3333333333333334  0.3703249352768836
