generated by phonopy
   1.0
     4.2706204346766237    0.0000000000000000    0.0000000000000000
     0.0000000000000000    4.2706204346766237    0.0000000000000000
     0.0000000000000000    0.0000000000000000    9.0597922018325932
Sr H I
   2    2    2
Direct
  0.0000000000000000  0.5000000000000000  0.1459955091503176
  0.5000000000000000  0.0000000000000000  0.8540044908496824
  0.5000000000000000  0.5000000000000000  0.0000000000000000
  0.0000000000000000  0.0000000000000000  0.0000000000000000
  0.0000000000000000  0.5000000000000000  0.6820443190894920
  0.5000000000000000  0.0000000000000000  0.3179556809105080
