generated by phonopy                    
    1.000000000000000     
    -0.0000000000000000    3.9854511583134076    3.9854511583134076
     3.9854511583134076   -0.0000000000000000    3.9854511583134076
     3.9854511583134076    3.9854511583134076    0.0000000000000000
   Sr   Bi   Au
     2     1     1
Direct
  0.2500000000000000  0.2500000000000000  0.2500000000000000
  0.7500000000000000  0.7500000000000000  0.7500000000000000
  0.0000000000000000  0.0000000000000000  0.0000000000000000
  0.5000000000000000  0.5000000000000000  0.5000000000000000
 
  0.00000000E+00  0.00000000E+00  0.00000000E+00
  0.00000000E+00  0.00000000E+00  0.00000000E+00
  0.00000000E+00  0.00000000E+00  0.00000000E+00
  0.00000000E+00  0.00000000E+00  0.00000000E+00
