generated by phonopy                    
    1.000000000000000     
     2.0093737693606544    1.1601124866429466    7.3180893721532581
    -2.0093737693606544    1.1601124866429466    7.3180893721532581
    -0.0000000000000001   -2.3202249732858933    7.3180893721532581
   K    Ho   S 
     1     1     2
Direct
  0.5000000000000000  0.5000000000000000  0.5000000000000000
  0.0000000000000000  0.0000000000000000  0.0000000000000000
  0.2660689835074592  0.2660689835074592  0.2660689835074592
  0.7339310164925408  0.7339310164925408  0.7339310164925408
