generated by phonopy                    
    1.000000000000000     
     1.8230467017067717    1.0525365039756640    6.2124469286946251
    -1.8230467017067720    1.0525365039756640    6.2124469286946251
    -0.0000000000000000   -2.1050730079513276    6.2124469286946251
   K    Pr   O 
     1     1     2
Direct
  0.0000000000000000  0.0000000000000000  0.0000000000000000
  0.5000000000000000  0.5000000000000000  0.5000000000000000
  0.2318522777371115  0.2318522777371115  0.2318522777371115
  0.7681477222628885  0.7681477222628885  0.7681477222628885
 
  0.00000000E+00  0.00000000E+00  0.00000000E+00
  0.00000000E+00  0.00000000E+00  0.00000000E+00
  0.00000000E+00  0.00000000E+00  0.00000000E+00
  0.00000000E+00  0.00000000E+00  0.00000000E+00
