generated by phonopy                    
    1.000000000000000     
     2.3392515411696064    1.3505675069965191    8.9426828004233290
    -2.3392515411696069    1.3505675069965191    8.9426828004233290
     0.0000000000000001   -2.7011350139930386    8.9426828004233290
   Cs   Nd   Te
     1     1     2
Direct
  0.5000000000000000  0.5000000000000000  0.5000000000000000
  0.0000000000000000  0.0000000000000000  0.0000000000000000
  0.2682917249831434  0.2682917249831434  0.2682917249831434
  0.7317082750168566  0.7317082750168566  0.7317082750168566
 
  0.00000000E+00  0.00000000E+00  0.00000000E+00
  0.00000000E+00  0.00000000E+00  0.00000000E+00
  0.00000000E+00  0.00000000E+00  0.00000000E+00
  0.00000000E+00  0.00000000E+00  0.00000000E+00
