generated by phonopy                    
    1.000000000000000     
     1.8057158486308409    1.0425305312869897    6.2052191363056899
    -1.8057158486308416    1.0425305312869897    6.2052191363056899
     0.0000000000000003   -2.0850610625739794    6.2052191363056899
   K    Nd   O 
     1     1     2
Direct
  0.0000000000000000  0.0000000000000000  0.0000000000000000
  0.5000000000000000  0.5000000000000000  0.5000000000000000
  0.7685982315153979  0.7685982315153979  0.7685982315153979
  0.2314017684846021  0.2314017684846021  0.2314017684846021
 
  0.00000000E+00  0.00000000E+00  0.00000000E+00
  0.00000000E+00  0.00000000E+00  0.00000000E+00
  0.00000000E+00  0.00000000E+00  0.00000000E+00
  0.00000000E+00  0.00000000E+00  0.00000000E+00
