generated by phonopy                    
    1.000000000000000     
     1.7618644664084770    1.0172129239565701    6.4869731890234643
    -1.7618644664084770    1.0172129239565701    6.4869731890234643
    -0.0000000000000001   -2.0344258479131403    6.4869731890234643
   Rb   Gd   O 
     1     1     2
Direct
  0.0000000000000000  0.0000000000000000  0.0000000000000000
  0.5000000000000000  0.5000000000000000  0.5000000000000000
  0.7736583669247565  0.7736583669247565  0.7736583669247565
  0.2263416330752435  0.2263416330752435  0.2263416330752435
