generated by phonopy                    
    1.000000000000000     
     3.3666936843144186    0.0000000000000000    0.0000000000000000
     0.0000000000000000    3.3666936843144186    0.0000000000000000
    -0.0000000000000000    0.0000000000000000    4.7485626120627282
   Ca   Cd   O 
     1     1     2
Direct
  0.5000000000000000  0.5000000000000000  0.5000000000000000
  0.0000000000000000  0.0000000000000000  0.0000000000000000
  0.5000000000000000  0.5000000000000000  0.0000000000000000
  0.0000000000000000  0.0000000000000000  0.5000000000000000
