generated by phonopy                    
    1.000000000000000     
     2.1056882300162476    1.2157196664293068    7.6704760484513708
    -2.1056882300162476    1.2157196664293068    7.6704760484513708
     0.0000000000000003   -2.4314393328586141    7.6704760484513708
   Rb   Nd   S 
     1     1     2
Direct
  0.0000000000000000  0.0000000000000000  0.0000000000000000
  0.5000000000000000  0.5000000000000000  0.5000000000000000
  0.7672544153720651  0.7672544153720651  0.7672544153720651
  0.2327455846279349  0.2327455846279349  0.2327455846279349
