generated by phonopy
   1.0
    -2.0475666775873984    2.0475666775873984    6.5350154093511108
     2.0475666775873984   -2.0475666775873984    6.5350154093511108
     2.0475666775873984    2.0475666775873984   -6.5350154093511108
Th Te N
   2    1    2
Direct
  0.3373782087676779  0.3373782087676779  0.0000000000000000
  0.6626217912323220  0.6626217912323220  0.0000000000000000
  0.0000000000000000  0.0000000000000000  0.0000000000000000
  0.2500000000000000  0.7500000000000000  0.5000000000000000
  0.7500000000000000  0.2500000000000000  0.5000000000000000
