generated by phonopy                    
    1.000000000000000     
     2.0188240454004429    1.1655686060584347    7.3176645458390848
    -2.0188240454004429    1.1655686060584347    7.3176645458390848
     0.0000000000000000   -2.3311372121168694    7.3176645458390848
   K    Y    S 
     1     1     2
Direct
  0.5000000000000000  0.5000000000000000  0.5000000000000000
  0.0000000000000000  0.0000000000000000  0.0000000000000000
  0.7342854167950961  0.7342854167950961  0.7342854167950961
  0.2657145832049039  0.2657145832049039  0.2657145832049039
 
  0.00000000E+00  0.00000000E+00  0.00000000E+00
  0.00000000E+00  0.00000000E+00  0.00000000E+00
  0.00000000E+00  0.00000000E+00  0.00000000E+00
  0.00000000E+00  0.00000000E+00  0.00000000E+00
