generated by phonopy                    
    1.000000000000000     
     2.0794084009375955    1.2005470000364902    7.6702025596416812
    -2.0794084009375959    1.2005470000364902    7.6702025596416812
     0.0000000000000001   -2.4010940000729804    7.6702025596416812
   Rb   Sm   S 
     1     1     2
Direct
  0.0000000000000000  0.0000000000000000  0.0000000000000000
  0.5000000000000000  0.5000000000000000  0.5000000000000000
  0.2319827099999969  0.2319827099999969  0.2319827099999969
  0.7680172900000031  0.7680172900000031  0.7680172900000031
