generated by phonopy
   1.0
     5.3122371823318462    0.0000000000000000    0.0000000000000000
     0.0000000000000000    5.3122371823318462    0.0000000000000000
     0.0000000000000000    0.0000000000000000    5.3122371823318462
K I O
   3    1    1
Direct
  0.5000000000000000  0.0000000000000000  0.0000000000000000
  0.0000000000000000  0.0000000000000000  0.5000000000000000
  0.0000000000000000  0.5000000000000000  0.0000000000000000
  0.5000000000000000  0.5000000000000000  0.5000000000000000
  0.0000000000000000  0.0000000000000000  0.0000000000000000
