generated by phonopy                    
    1.000000000000000     
     1.7897568296669562    1.0333165873921879    6.2785822753994776
    -1.7897568296669557    1.0333165873921879    6.2785822753994776
    -0.0000000000000001   -2.0666331747843762    6.2785822753994776
   Ca   Hg   O 
     1     1     2
Direct
  0.5000000000000000  0.5000000000000000  0.5000000000000000
  0.0000000000000000  0.0000000000000000  0.0000000000000000
  0.8942687745309480  0.8942687745309480  0.8942687745309480
  0.1057312254690520  0.1057312254690520  0.1057312254690520
 
  0.00000000E+00  0.00000000E+00  0.00000000E+00
  0.00000000E+00  0.00000000E+00  0.00000000E+00
  0.00000000E+00  0.00000000E+00  0.00000000E+00
  0.00000000E+00  0.00000000E+00  0.00000000E+00
