generated by phonopy
   1.0
     4.5550951198022194    0.0000000000000000    0.0000000000000000
     0.0000000000000000    4.5550951198022194    0.0000000000000000
     0.0000000000000000    0.0000000000000000    3.0179359646666848
Mg F
   2    4
Direct
  0.5000000000000000  0.5000000000000000  0.5000000000000001
  0.0000000000000000  0.0000000000000000  0.0000000000000000
  0.6978664274661384  0.6978664274661384  0.0000000000000000
  0.8021335725338616  0.1978664274661384  0.5000000000000001
  0.3021335725338616  0.3021335725338616  0.0000000000000000
  0.1978664274661384  0.8021335725338616  0.5000000000000001
