generated by phonopy
   1.0
     4.4617126688740445    0.0000000000000000    0.0000000000000000
    -2.2308563344370222    3.8639565156317897    0.0000000000000000
     0.0000000000000000    0.0000000000000000    7.2292963108189667
Li Zn Sb
   2    2    2
Direct
  0.0000000000000000  0.0000000000000000  0.1759418389896155
  0.0000000000000000  0.0000000000000000  0.6759418389896155
  0.6666666666666666  0.3333333333333333  0.5112684307665205
  0.3333333333333333  0.6666666666666666  0.0112684307665205
  0.3333333333333333  0.6666666666666666  0.3937887302438625
  0.6666666666666667  0.3333333333333333  0.8937887302438625
