generated by phonopy                    
    1.000000000000000     
     1.6754838985465872    0.9673410798487562    6.1390584575791225
    -1.6754838985465874    0.9673410798487562    6.1390584575791225
     0.0000000000000000   -1.9346821596975123    6.1390584575791225
   K    Lu   O 
     1     1     2
Direct
  0.0000000000000000  0.0000000000000000  0.0000000000000000
  0.5000000000000000  0.5000000000000000  0.5000000000000000
  0.2279612824569028  0.2279612824569028  0.2279612824569028
  0.7720387175430972  0.7720387175430972  0.7720387175430972
 
  0.00000000E+00  0.00000000E+00  0.00000000E+00
  0.00000000E+00  0.00000000E+00  0.00000000E+00
  0.00000000E+00  0.00000000E+00  0.00000000E+00
  0.00000000E+00  0.00000000E+00  0.00000000E+00
