generated by phonopy                    
    1.000000000000000     
     1.9692599169624165    1.1369527431625912    7.3472461781690397
    -1.9692599169624168    1.1369527431625912    7.3472461781690397
     0.0000000000000002   -2.2739054863251820    7.3472461781690397
   Sr   Br   N 
     2     1     1
Direct
  0.7726201762010163  0.7726201762010163  0.7726201762010163
  0.2273798237989837  0.2273798237989837  0.2273798237989837
  0.0000000000000000  0.0000000000000000  0.0000000000000000
  0.5000000000000000  0.5000000000000000  0.5000000000000000
