generated by phonopy                    
    1.000000000000000     
     2.0436551557354372    1.1799048542946209    6.5032015991249441
    -2.0436551557354372    1.1799048542946209    6.5032015991249441
    -0.0000000000000000   -2.3598097085892418    6.5032015991249441
   Li   Tb   Se
     1     1     2
Direct
  0.5000000000000000  0.5000000000000000  0.5000000000000000
  0.0000000000000000  0.0000000000000000  0.0000000000000000
  0.2487097561543621  0.2487097561543621  0.2487097561543621
  0.7512902438456379  0.7512902438456379  0.7512902438456379
