generated by phonopy                    
    1.000000000000000     
     2.3049954680783613    1.3307897539759093    8.1203126166667019
    -2.3049954680783613    1.3307897539759093    8.1203126166667019
     0.0000000000000001   -2.6615795079518181    8.1203126166667019
   Pr   Tl   Te
     1     1     2
Direct
  0.0000000000000000  0.0000000000000000  0.0000000000000000
  0.5000000000000000  0.5000000000000000  0.5000000000000000
  0.7409273800000022  0.7409273800000022  0.7409273800000022
  0.2590726199999978  0.2590726199999978  0.2590726199999978
