generated by phonopy                    
    1.000000000000000     
     2.1334264886707328    1.2317343575303252    6.9475770601277951
    -2.1334264886707328    1.2317343575303252    6.9475770601277951
     0.0000000000000000   -2.4634687150606505    6.9475770601277951
   Na   Nd   Se
     1     1     2
Direct
  0.5000000000000000  0.5000000000000000  0.5000000000000000
  0.0000000000000000  0.0000000000000000  0.0000000000000000
  0.7461782353765969  0.7461782353765969  0.7461782353765969
  0.2538217646234031  0.2538217646234031  0.2538217646234031
