generated by phonopy                    
    1.000000000000000     
     1.9084985447784897    1.1018721485758702    5.6675287729753583
    -1.9084985447784897    1.1018721485758702    5.6675287729753583
    -0.0000000000000000   -2.2037442971517405    5.6675287729753583
   La   Cu   O 
     1     1     2
Direct
  0.5000000000000000  0.5000000000000000  0.5000000000000000
  0.0000000000000000  0.0000000000000000  0.0000000000000000
  0.1064792110276329  0.1064792110276329  0.1064792110276329
  0.8935207889723671  0.8935207889723671  0.8935207889723671
 
  0.00000000E+00  0.00000000E+00  0.00000000E+00
  0.00000000E+00  0.00000000E+00  0.00000000E+00
  0.00000000E+00  0.00000000E+00  0.00000000E+00
  0.00000000E+00  0.00000000E+00  0.00000000E+00
