generated by phonopy                    
    1.000000000000000     
     1.9539857515217376    1.1281341996337682    6.6018951805194170
    -1.9539857515217374    1.1281341996337682    6.6018951805194170
    -0.0000000000000003   -2.2562683992675363    6.6018951805194170
   Na   Tm   S 
     1     1     2
Direct
  0.5000000000000000  0.5000000000000000  0.5000000000000000
  0.0000000000000000  0.0000000000000000  0.0000000000000000
  0.7421199321496061  0.7421199321496061  0.7421199321496061
  0.2578800678503939  0.2578800678503939  0.2578800678503939
 
  0.00000000E+00  0.00000000E+00  0.00000000E+00
  0.00000000E+00  0.00000000E+00  0.00000000E+00
  0.00000000E+00  0.00000000E+00  0.00000000E+00
  0.00000000E+00  0.00000000E+00  0.00000000E+00
