generated by phonopy
   1.0
     1.9671590604792777    1.1357398131065222    6.5324374595831092
    -1.9671590604792777    1.1357398131065222    6.5324374595831092
    -0.0000000000000001   -2.2714796262130443    6.5324374595831092
Nd O F
   2    2    2
Direct
  0.7419890719572848  0.7419890719572848  0.7419890719572848
  0.2580109280427151  0.2580109280427151  0.2580109280427151
  0.6217391382633959  0.6217391382633959  0.6217391382633959
  0.3782608617366041  0.3782608617366042  0.3782608617366041
  0.8699336264116250  0.8699336264116251  0.8699336264116251
  0.1300663735883749  0.1300663735883749  0.1300663735883749
