generated by phonopy                    
    1.000000000000000     
     1.8259438405335093    1.0542091678571606    6.6171445256343393
    -1.8259438405335093    1.0542091678571606    6.6171445256343393
     0.0000000000000001   -2.1084183357143216    6.6171445256343393
   Ca   N    Cl
     2     1     1
Direct
  0.7714198302739135  0.7714198302739135  0.7714198302739135
  0.2285801697260865  0.2285801697260865  0.2285801697260865
  0.5000000000000000  0.5000000000000000  0.5000000000000000
  0.0000000000000000  0.0000000000000000  0.0000000000000000
