generated by phonopy                    
    1.000000000000000     
     4.2940265109963995    0.0000000000000000   -0.0000000000000000
    -2.1470132554981998    3.7187360430467411   -0.0000000000000000
    -0.0000000000000000    0.0000000000000000    5.2401212537961346
   Ba   Ga   Si   H 
     1     1     1     1
Direct
  0.0000000000000000  0.0000000000000000  0.0003250994769388
  0.6666666666666643  0.3333333333333357  0.5409780146359822
  0.3333333333333357  0.6666666666666643  0.4559053518471998
  0.6666666666666643  0.3333333333333357  0.8764915340398787
 
  0.00000000E+00  0.00000000E+00  0.00000000E+00
  0.00000000E+00  0.00000000E+00  0.00000000E+00
  0.00000000E+00  0.00000000E+00  0.00000000E+00
  0.00000000E+00  0.00000000E+00  0.00000000E+00
