generated by phonopy
   1.0
     4.0118094324365137    0.0000000000000000    0.0000000000000000
     0.0000000000000000    4.0118094324365137    0.0000000000000000
     0.0000000000000000    0.0000000000000000    4.0118094324365137
Rb Mg F
   1    1    3
Direct
  0.0000000000000000  0.0000000000000000  0.0000000000000000
  0.5000000000000001  0.5000000000000001  0.5000000000000001
  0.0000000000000000  0.5000000000000001  0.5000000000000001
  0.5000000000000001  0.0000000000000000  0.5000000000000001
  0.5000000000000001  0.5000000000000001  0.0000000000000000
