generated by phonopy                    
    1.000000000000000     
     4.0872212218068755    0.0000000000000000    0.0000000000000000
    -2.0436106109034382    3.5396374089716272    0.0000000000000000
     0.0000000000000000    0.0000000000000000    6.4134081664053904
   Dy   Cu   Se
     1     1     2
Direct
 -0.0000000000000000  0.0000000000000000  0.5108560912193116
  0.6666666666666643  0.3333333333333357  0.1289371976159069
  0.3333333333333357  0.6666666666666643  0.2381919687021753
  0.6666666666666643  0.3333333333333357  0.7481127424626050
 
  0.00000000E+00  0.00000000E+00  0.00000000E+00
  0.00000000E+00  0.00000000E+00  0.00000000E+00
  0.00000000E+00  0.00000000E+00  0.00000000E+00
  0.00000000E+00  0.00000000E+00  0.00000000E+00
