generated by phonopy                    
    1.000000000000000     
     2.3219668075451914    1.3405881613855917    8.5239305028569454
    -2.3219668075451914    1.3405881613855917    8.5239305028569454
    -0.0000000000000001   -2.6811763227711838    8.5239305028569454
   Rb   Nd   Te
     1     1     2
Direct
  0.5000000000000000  0.5000000000000000  0.5000000000000000
 -0.0000000000000000 -0.0000000000000000 -0.0000000000000000
  0.2646243436946412  0.2646243436946412  0.2646243436946412
  0.7353756563053587  0.7353756563053587  0.7353756563053587
