generated by phonopy                    
    1.000000000000000     
     0.0000000000000000    2.9615422538538776    2.9615422538538776
     2.9615422538538776    0.0000000000000000    2.9615422538538776
     2.9615422538538776    2.9615422538538776    0.0000000000000000
   Na   Br
     1     1
Direct
  0.0000000000000000  0.0000000000000000  0.0000000000000000
  0.5000000000000000  0.5000000000000000  0.5000000000000000
 
  0.00000000E+00  0.00000000E+00  0.00000000E+00
  0.00000000E+00  0.00000000E+00  0.00000000E+00
