generated by phonopy                    
    1.000000000000000     
     0.0000000000000000    3.3582845696000834    3.3582845696000834
     3.3582845696000834    0.0000000000000000    3.3582845696000834
     3.3582845696000834    3.3582845696000834    0.0000000000000000
   Li   Bi
     3     1
Direct
  0.7500000000000000  0.7500000000000000  0.7500000000000000
  0.5000000000000000  0.5000000000000000  0.5000000000000000
  0.2500000000000000  0.2500000000000000  0.2500000000000000
  0.0000000000000000  0.0000000000000000  0.0000000000000000
 
  0.00000000E+00  0.00000000E+00  0.00000000E+00
  0.00000000E+00  0.00000000E+00  0.00000000E+00
  0.00000000E+00  0.00000000E+00  0.00000000E+00
  0.00000000E+00  0.00000000E+00  0.00000000E+00
