generated by phonopy                    
    1.000000000000000     
     4.1362225310345728    0.0000000000000000    0.0000000000000000
    -2.0681112655172864    3.5820737875815087    0.0000000000000000
     0.0000000000000000    0.0000000000000000    5.9225931000000012
   La   N 
     2     2
Direct
  0.3333333333333357  0.6666666666666643  0.9975476600000022
  0.6666666666666643  0.3333333333333357  0.4975476600000022
  0.3333333333333357  0.6666666666666643  0.4124523400000015
  0.6666666666666643  0.3333333333333357  0.9124523400000015
