generated by phonopy                    
    1.000000000000000     
     2.0547970227797259    1.1863376142319155    6.5355346127144323
    -2.0547970227797254    1.1863376142319155    6.5355346127144323
    -0.0000000000000000   -2.3726752284638311    6.5355346127144323
   Ba   Hg   O 
     1     1     2
Direct
  0.5000000000000000  0.5000000000000000  0.5000000000000000
  0.0000000000000000  0.0000000000000000  0.0000000000000000
  0.8985638875074500  0.8985638875074500  0.8985638875074500
  0.1014361124925500  0.1014361124925500  0.1014361124925500
