generated by phonopy
   1.0
     1.9285149830390271    1.1134286445938091    5.8633057328667979
    -1.9285149830390276    1.1134286445938091    5.8633057328667979
     0.0000000000000008   -2.2268572891876177    5.8633057328667979
Ca U O
   1    1    4
Direct
  0.5000000000000002  0.4999999999999999  0.5000000000000001
  0.0000000000000000  0.0000000000000000  0.0000000000000000
  0.3629878472839987  0.3629878472839985  0.3629878472839985
  0.6370121527160018  0.6370121527160015  0.6370121527160013
  0.8874972294586647  0.8874972294586644  0.8874972294586645
  0.1125027705413356  0.1125027705413356  0.1125027705413356
