generated by phonopy                    
    1.000000000000000     
     4.3733399946102365    0.0000000000000000    0.0000000000000000
    -2.1866699973051182    3.7874235347189646    0.0000000000000000
     0.0000000000000000    0.0000000000000000    5.2426727976551328
   Ba   Al   Ge   H 
     1     1     1     1
Direct
  0.3333333333333357  0.6666666666666643  0.0994900123954184
  0.0000000000000000 -0.0000000000000000  0.6407821478612161
  0.6666666666666643  0.3333333333333357  0.5527932763239334
  0.0000000000000000 -0.0000000000000000  0.9729355634194420
 
  0.00000000E+00  0.00000000E+00  0.00000000E+00
  0.00000000E+00  0.00000000E+00  0.00000000E+00
  0.00000000E+00  0.00000000E+00  0.00000000E+00
  0.00000000E+00  0.00000000E+00  0.00000000E+00
