generated by phonopy                    
    1.000000000000000     
     4.3237124914862548    0.0000000000000000    0.0000000000000000
    -2.1618562457431274    3.7444448562872052    0.0000000000000000
     0.0000000000000000    0.0000000000000000    6.8302831178045871
   Bi   Te   Br
     1     1     1
Direct
  0.0000000000000000 -0.0000000000000000  0.0058157053424362
  0.3333333333333357  0.6666666666666643  0.2614592668580829
  0.6666666666666643  0.3333333333333357  0.7327250277994809
 
  0.00000000E+00  0.00000000E+00  0.00000000E+00
  0.00000000E+00  0.00000000E+00  0.00000000E+00
  0.00000000E+00  0.00000000E+00  0.00000000E+00
