generated by phonopy                    
    1.000000000000000     
     2.6869892196464700   -0.0000000000000000    0.0000000000000000
    -1.3434946098232350    2.3270009239087672    0.0000000000000000
     0.0000000000000000    0.0000000000000000    4.3653282829700046
   Be   O 
     2     2
Direct
  0.3333333333333357  0.6666666666666643  0.9999942098908079
  0.6666666666666643  0.3333333333333357  0.4999942098908079
  0.3333333333333357  0.6666666666666643  0.3775057901091898
  0.6666666666666643  0.3333333333333357  0.8775057901091898
 
  0.00000000E+00  0.00000000E+00  0.00000000E+00
  0.00000000E+00  0.00000000E+00  0.00000000E+00
  0.00000000E+00  0.00000000E+00  0.00000000E+00
  0.00000000E+00  0.00000000E+00  0.00000000E+00
