generated by phonopy                    
    1.000000000000000     
     2.0476078422049575    1.1821869388918214    6.9454834274979449
    -2.0476078422049580    1.1821869388918214    6.9454834274979449
     0.0000000000000000   -2.3643738777836423    6.9454834274979449
   Na   Er   Se
     1     1     2
Direct
  0.5000000000000000  0.5000000000000000  0.5000000000000000
  0.0000000000000000  0.0000000000000000  0.0000000000000000
  0.2569055859273419  0.2569055859273419  0.2569055859273419
  0.7430944140726581  0.7430944140726581  0.7430944140726581
 
  0.00000000E+00  0.00000000E+00  0.00000000E+00
  0.00000000E+00  0.00000000E+00  0.00000000E+00
  0.00000000E+00  0.00000000E+00  0.00000000E+00
  0.00000000E+00  0.00000000E+00  0.00000000E+00
