generated by phonopy                    
    1.000000000000000     
     2.1576400126112758    1.2457140420954276    7.9745505472440863
    -2.1576400126112758    1.2457140420954276    7.9745505472440863
     0.0000000000000000   -2.4914280841908552    7.9745505472440863
   Rb   Sm   Se
     1     1     2
Direct
  0.0000000000000000  0.0000000000000000  0.0000000000000000
  0.5000000000000000  0.5000000000000000  0.5000000000000000
  0.2332429738212056  0.2332429738212056  0.2332429738212056
  0.7667570261787944  0.7667570261787944  0.7667570261787944
