generated by phonopy                    
    1.000000000000000     
     2.0403556434277110    1.1779998799755611    7.3306372300046911
    -2.0403556434277110    1.1779998799755611    7.3306372300046911
    -0.0000000000000001   -2.3559997599511222    7.3306372300046911
   K    Gd   S 
     1     1     2
Direct
  0.0000000000000000  0.0000000000000000  0.0000000000000000
  0.5000000000000000  0.5000000000000000  0.5000000000000000
  0.7652534896144516  0.7652534896144516  0.7652534896144516
  0.2347465103855484  0.2347465103855484  0.2347465103855484
 
  0.00000000E+00  0.00000000E+00  0.00000000E+00
  0.00000000E+00  0.00000000E+00  0.00000000E+00
  0.00000000E+00  0.00000000E+00  0.00000000E+00
  0.00000000E+00  0.00000000E+00  0.00000000E+00
