generated by phonopy                    
    1.000000000000000     
     2.0202370487737902    1.1663844039364026    7.3225523509488433
    -2.0202370487737902    1.1663844039364026    7.3225523509488433
     0.0000000000000000   -2.3327688078728048    7.3225523509488433
   K    Dy   S 
     1     1     2
Direct
  0.5000000000000000  0.5000000000000000  0.5000000000000000
  0.0000000000000000  0.0000000000000000  0.0000000000000000
  0.7342228555284080  0.7342228555284080  0.7342228555284080
  0.2657771444715920  0.2657771444715920  0.2657771444715920
 
  0.00000000E+00  0.00000000E+00  0.00000000E+00
  0.00000000E+00  0.00000000E+00  0.00000000E+00
  0.00000000E+00  0.00000000E+00  0.00000000E+00
  0.00000000E+00  0.00000000E+00  0.00000000E+00
