generated by phonopy                    
    1.000000000000000     
     2.1847755135341425    1.2613807308578397    6.8732629781031935
    -2.1847755135341425    1.2613807308578397    6.8732629781031935
    -0.0000000000000001   -2.5227614617156791    6.8732629781031935
   Na   La   Se
     1     1     2
Direct
  0.0000000000000000  0.0000000000000000  0.0000000000000000
  0.5000000000000000  0.5000000000000000  0.5000000000000000
  0.7532753931193241  0.7532753931193241  0.7532753931193241
  0.2467246068806759  0.2467246068806759  0.2467246068806759
