generated by phonopy                    
    1.000000000000000     
     2.0336522388486893    1.1741296675373758    7.4869391029316983
    -2.0336522388486893    1.1741296675373758    7.4869391029316983
    -0.0000000000000001   -2.3482593350747516    7.4869391029316983
   Gd   Tl   S 
     1     1     2
Direct
  0.0000000000000000  0.0000000000000000  0.0000000000000000
  0.5000000000000000  0.5000000000000000  0.5000000000000000
  0.2666503469121011  0.2666503469121011  0.2666503469121011
  0.7333496530878989  0.7333496530878989  0.7333496530878989
