generated by phonopy                    
    1.000000000000000     
     2.1667861277569878    1.2509945541368437    8.0316332365483909
    -2.1667861277569878    1.2509945541368437    8.0316332365483909
    -0.0000000000000001   -2.5019891082736874    8.0316332365483909
   Cs   La   S 
     1     1     2
Direct
  0.0000000000000000  0.0000000000000000  0.0000000000000000
  0.5000000000000000  0.5000000000000000  0.5000000000000000
  0.2292187279234170  0.2292187279234170  0.2292187279234170
  0.7707812720765830  0.7707812720765830  0.7707812720765830
