generated by phonopy                    
    1.000000000000000     
     2.0873658438015354    1.2051412318160466    7.7349838862534073
    -2.0873658438015354    1.2051412318160466    7.7349838862534073
    -0.0000000000000001   -2.4102824636320932    7.7349838862534073
   Rb   Bi   S 
     1     1     2
Direct
  0.5000000000000000  0.5000000000000000  0.5000000000000000
  0.0000000000000000  0.0000000000000000  0.0000000000000000
  0.7340395910145787  0.7340395910145787  0.7340395910145787
  0.2659604089854213  0.2659604089854213  0.2659604089854213
 
  0.00000000E+00  0.00000000E+00  0.00000000E+00
  0.00000000E+00  0.00000000E+00  0.00000000E+00
  0.00000000E+00  0.00000000E+00  0.00000000E+00
  0.00000000E+00  0.00000000E+00  0.00000000E+00
