generated by phonopy                    
    1.000000000000000     
     1.8496950016280542    1.0679219071086625    6.1750774691537327
    -1.8496950016280544    1.0679219071086625    6.1750774691537327
     0.0000000000000002   -2.1358438142173251    6.1750774691537327
   K    La   O 
     1     1     2
Direct
  0.0000000000000000  0.0000000000000000  0.0000000000000000
  0.5000000000000000  0.5000000000000000  0.5000000000000000
  0.7686016622104148  0.7686016622104148  0.7686016622104148
  0.2313983377895852  0.2313983377895852  0.2313983377895852
 
  0.00000000E+00  0.00000000E+00  0.00000000E+00
  0.00000000E+00  0.00000000E+00  0.00000000E+00
  0.00000000E+00  0.00000000E+00  0.00000000E+00
  0.00000000E+00  0.00000000E+00  0.00000000E+00
