generated by phonopy                    
    1.000000000000000     
     2.1853776905637927    1.2617283979280085    7.9876666556122933
    -2.1853776905637927    1.2617283979280085    7.9876666556122933
    -0.0000000000000001   -2.5234567958560166    7.9876666556122933
   Rb   Nd   Se
     1     1     2
Direct
  0.0000000000000000  0.0000000000000000  0.0000000000000000
  0.5000000000000000  0.5000000000000000  0.5000000000000000
  0.7660905680696715  0.7660905680696715  0.7660905680696715
  0.2339094319303285  0.2339094319303285  0.2339094319303285
