generated by phonopy                    
    1.000000000000000     
     1.5766490796094650    0.9102787705301005    5.3789124567153292
    -1.5766490796094650    0.9102787705301005    5.3789124567153292
    -0.0000000000000001   -1.8205575410602011    5.3789124567153292
   Na   Sc   O 
     1     1     2
Direct
  0.5000000000000000  0.5000000000000000  0.5000000000000000
  0.0000000000000000  0.0000000000000000  0.0000000000000000
  0.7356028644075252  0.7356028644075252  0.7356028644075252
  0.2643971355924748  0.2643971355924748  0.2643971355924748
