generated by phonopy                    
    1.000000000000000     
     1.9011465212892451    1.0976274558352661    6.2877648489189255
    -1.9011465212892453    1.0976274558352661    6.2877648489189255
     0.0000000000000000   -2.1952549116705322    6.2877648489189255
   Sr   H    N 
     2     1     1
Direct
  0.7608155742106391  0.7608155742106391  0.7608155742106391
  0.2391844257893609  0.2391844257893609  0.2391844257893609
  0.0000000000000000  0.0000000000000000  0.0000000000000000
  0.5000000000000000  0.5000000000000000  0.5000000000000000
 
  0.00000000E+00  0.00000000E+00  0.00000000E+00
  0.00000000E+00  0.00000000E+00  0.00000000E+00
  0.00000000E+00  0.00000000E+00  0.00000000E+00
  0.00000000E+00  0.00000000E+00  0.00000000E+00
