generated by phonopy                    
    1.000000000000000     
     1.9745117729331980    1.1399849036210670    6.1820855643201682
    -1.9745117729331982    1.1399849036210670    6.1820855643201682
    -0.0000000000000001   -2.2799698072421335    6.1820855643201682
   Li   Gd   S 
     1     1     2
Direct
  0.5000000000000000  0.5000000000000000  0.5000000000000000
  0.0000000000000000  0.0000000000000000  0.0000000000000000
  0.2491898985240582  0.2491898985240582  0.2491898985240582
  0.7508101014759418  0.7508101014759418  0.7508101014759418
