generated by phonopy                    
    1.000000000000000     
     0.0000000000000000    3.1797530055248182    3.1797530055248182
     3.1797530055248182   -0.0000000000000000    3.1797530055248182
     3.1797530055248182    3.1797530055248182    0.0000000000000000
   Sc   Sb   Pd
     1     1     1
Direct
  0.5000000000000000  0.5000000000000000  0.5000000000000000
  0.0000000000000000  0.0000000000000000  0.0000000000000000
  0.2500000000000000  0.2500000000000000  0.2500000000000000
 
  0.00000000E+00  0.00000000E+00  0.00000000E+00
  0.00000000E+00  0.00000000E+00  0.00000000E+00
  0.00000000E+00  0.00000000E+00  0.00000000E+00
