generated by phonopy
   1.0
     4.4275355997955295    0.0000000000000000    0.0000000000000000
     0.0000000000000000    4.4275355997955295    0.0000000000000000
     0.0000000000000000    0.0000000000000000    2.9827423912985465
Mg H
   2    4
Direct
  0.4999999999999999  0.4999999999999999  0.5000000000000000
  0.0000000000000000  0.0000000000000000  0.0000000000000000
  0.6959457454729614  0.6959457454729614  0.0000000000000000
  0.8040542545270383  0.1959457454729616  0.5000000000000000
  0.3040542545270384  0.3040542545270384  0.0000000000000000
  0.1959457454729616  0.8040542545270383  0.5000000000000000
