generated by phonopy                    
    1.000000000000000     
     2.2348289846696843    1.2902791158918199    7.9767855424133618
    -2.2348289846696838    1.2902791158918199    7.9767855424133618
     0.0000000000000000   -2.5805582317836397    7.9767855424133618
   Rb   La   Se
     1     1     2
Direct
  0.0000000000000000  0.0000000000000000  0.0000000000000000
  0.5000000000000000  0.5000000000000000  0.5000000000000000
  0.7661598815662316  0.7661598815662316  0.7661598815662316
  0.2338401184337684  0.2338401184337684  0.2338401184337684
