generated by phonopy
   1.0
     4.0138875522862998    0.0000000000000000    0.0000000000000000
     0.0000000000000000    4.0138875522862998    0.0000000000000000
     0.0000000000000000    0.0000000000000000    9.1505841733751669
Ca H I
   2    2    2
Direct
  0.0000000000000000  0.5000000000000000  0.1330128660990511
  0.5000000000000000  0.0000000000000000  0.8669871339009489
  0.5000000000000000  0.5000000000000000  0.0000000000000000
  0.0000000000000000  0.0000000000000000  0.0000000000000000
  0.0000000000000000  0.5000000000000000  0.6933511033126010
  0.5000000000000000  0.0000000000000000  0.3066488966873990
