generated by phonopy
   1.0
     4.2280803011657113    0.0000000000000000    0.0000000000000000
     0.0000000000000000    4.2280803011657113    0.0000000000000000
     0.0000000000000000    0.0000000000000000    7.2932739026083864
Sr H Br
   2    2    2
Direct
  0.4999999999999999  0.0000000000000000  0.8138797982439243
  0.0000000000000000  0.4999999999999999  0.1861202017560757
  0.4999999999999999  0.4999999999999999  0.0000000000000000
  0.0000000000000000  0.0000000000000000  0.0000000000000000
  0.0000000000000000  0.4999999999999999  0.6528794789060015
  0.4999999999999999  0.0000000000000000  0.3471205210939985
