generated by phonopy
   1.0
     4.3806293147071251    0.0000000000000000    0.0000000000000000
     0.0000000000000000    4.3806293147071251    0.0000000000000000
     0.0000000000000000    0.0000000000000000    7.2362523291651426
Ba Cl F
   2    2    2
Direct
  0.0000000000000000  0.5000000000000000  0.7922942371624867
  0.5000000000000000  0.0000000000000000  0.2077057628375130
  0.5000000000000000  0.0000000000000000  0.6466431496283602
  0.0000000000000000  0.5000000000000000  0.3533568503716396
  0.0000000000000000  0.0000000000000000  0.0000000000000000
  0.5000000000000000  0.5000000000000000  0.0000000000000000
