generated by phonopy
   1.0
     4.0899668882939073    0.0000000000000000    0.0000000000000000
     0.0000000000000000    4.0899668882939073    0.0000000000000000
     0.0000000000000000    0.0000000000000000    7.2006480420299992
Pb Cl F
   2    2    2
Direct
  0.0000000000000000  0.5000000000000000  0.7912842819001540
  0.5000000000000000  0.0000000000000000  0.2087157180998460
  0.5000000000000000  0.0000000000000000  0.6457366041939778
  0.0000000000000000  0.5000000000000000  0.3542633958060222
  0.5000000000000000  0.5000000000000000  0.0000000000000000
  0.0000000000000000  0.0000000000000000  0.0000000000000000
