generated by phonopy                    
    1.000000000000000     
     1.6489050914006083    0.9519957983882851    6.3320738983010498
    -1.6489050914006080    0.9519957983882851    6.3320738983010498
    -0.0000000000000000   -1.9039915967765701    6.3320738983010498
   In   Ag   O 
     1     1     2
Direct
  0.5000000000000000  0.5000000000000000  0.5000000000000000
  0.0000000000000000  0.0000000000000000  0.0000000000000000
  0.8904761670570593  0.8904761670570593  0.8904761670570593
  0.1095238329429407  0.1095238329429407  0.1095238329429407
