generated by phonopy                    
    1.000000000000000     
     1.9530362428289658    1.1275860005343985    6.1687117365989863
    -1.9530362428289658    1.1275860005343985    6.1687117365989863
    -0.0000000000000001   -2.2551720010687970    6.1687117365989863
   Li   Y    S 
     1     1     2
Direct
  0.5000000000000000  0.5000000000000000  0.5000000000000000
  0.0000000000000000  0.0000000000000000  0.0000000000000000
  0.7502932010606571  0.7502932010606571  0.7502932010606571
  0.2497067989393429  0.2497067989393429  0.2497067989393429
 
  0.00000000E+00  0.00000000E+00  0.00000000E+00
  0.00000000E+00  0.00000000E+00  0.00000000E+00
  0.00000000E+00  0.00000000E+00  0.00000000E+00
  0.00000000E+00  0.00000000E+00  0.00000000E+00
