generated by phonopy                    
    1.000000000000000     
     2.0916690897753858    1.2076257120374385    8.0532027222372466
    -2.0916690897753858    1.2076257120374385    8.0532027222372466
    -0.0000000000000001   -2.4152514240748770    8.0532027222372466
   Cs   Sm   S 
     1     1     2
Direct
  0.0000000000000000  0.0000000000000000  0.0000000000000000
  0.5000000000000000  0.5000000000000000  0.5000000000000000
  0.7715874475150599  0.7715874475150599  0.7715874475150599
  0.2284125524849401  0.2284125524849401  0.2284125524849401
