generated by phonopy                    
    1.000000000000000     
    -0.0000000000000000    3.8362237906085204    3.8362237906085204
     3.8362237906085204   -0.0000000000000000    3.8362237906085204
     3.8362237906085204    3.8362237906085204   -0.0000000000000000
   K    Na   Sb
     1     2     1
Direct
  0.5000000000000000  0.5000000000000000  0.5000000000000000
  0.2500000000000000  0.2500000000000000  0.2500000000000000
  0.7500000000000000  0.7500000000000000  0.7500000000000000
  0.0000000000000000  0.0000000000000000  0.0000000000000000
