generated by phonopy                    
    1.000000000000000     
     4.3262520418144748   -0.0000000000000000    0.0000000000000000
    -2.1631260209072374    3.7466441713856322   -0.0000000000000000
     0.0000000000000000   -0.0000000000000000    5.2083184133191933
   Ba   Al   Si   H 
     1     1     1     1
Direct
  0.0000000000000000  0.0000000000000000  0.0014450261268095
  0.6666666666666643  0.3333333333333357  0.4665309448374515
  0.3333333333333357  0.6666666666666643  0.5431556845112766
  0.6666666666666643  0.3333333333333357  0.1317693445244643
 
  0.00000000E+00  0.00000000E+00  0.00000000E+00
  0.00000000E+00  0.00000000E+00  0.00000000E+00
  0.00000000E+00  0.00000000E+00  0.00000000E+00
  0.00000000E+00  0.00000000E+00  0.00000000E+00
