generated by phonopy
   1.0
     4.4588704925464402    0.0000000000000000    0.0000000000000000
     0.0000000000000000    4.4588704925464402    0.0000000000000000
     0.0000000000000000    0.0000000000000000    8.2376999181943251
Nd Te Cl
   2    2    2
Direct
  0.0000000000000000  0.5000000000000000  0.7612147103987678
  0.5000000000000000  0.0000000000000000  0.2387852896012320
  0.0000000000000000  0.5000000000000000  0.3663543034738834
  0.5000000000000000  0.0000000000000000  0.6336456965261165
  0.0000000000000000  0.0000000000000000  0.0000000000000000
  0.5000000000000000  0.5000000000000000  0.0000000000000000
