generated by phonopy                    
    1.000000000000000     
     2.0694901265313654    1.1948206816381564    6.6192938004387960
    -2.0694901265313654    1.1948206816381564    6.6192938004387960
    -0.0000000000000002   -2.3896413632763132    6.6192938004387960
   Na   Pr   S 
     1     1     2
Direct
  0.0000000000000000  0.0000000000000000  0.0000000000000000
  0.5000000000000000  0.5000000000000000  0.5000000000000000
  0.2460524489245017  0.2460524489245017  0.2460524489245017
  0.7539475510754983  0.7539475510754983  0.7539475510754983
