generated by phonopy                    
    1.000000000000000     
     1.9371551501750794    1.1184170474156523    6.1420972808371275
    -1.9371551501750797    1.1184170474156523    6.1420972808371275
     0.0000000000000000   -2.2368340948313046    6.1420972808371275
   Li   Er   S 
     1     1     2
Direct
  0.5000000000000000  0.5000000000000000  0.5000000000000000
  0.0000000000000000  0.0000000000000000  0.0000000000000000
  0.2502019560931146  0.2502019560931146  0.2502019560931146
  0.7497980439068854  0.7497980439068854  0.7497980439068854
