generated by phonopy
   1.0
     4.5602816993880904    0.0000000000000000    0.0000000000000000
     0.0000000000000000    5.1092880079933281    0.0000000000000000
    -1.3451842464150892    0.0000000000000000    6.7258442033327945
Rb H S
   2    2    2
Direct
  0.2307556587360082  0.2500000000000000  0.7617662625399220
  0.7692443412639918  0.7500000000000000  0.2382337374600780
  0.5228341670560324  0.2500000000000000  0.3955275750185479
  0.4771658329439676  0.7500000000000000  0.6044724249814521
  0.2630352287257125  0.2500000000000000  0.2587878960888474
  0.7369647712742875  0.7500000000000000  0.7412121039111526
