generated by phonopy                    
    1.000000000000000     
    -0.0000000000000000    3.2880713741573513    3.2880713741573513
     3.2880713741573513    0.0000000000000000    3.2880713741573513
     3.2880713741573513    3.2880713741573513    0.0000000000000000
   Dy   Sb   Pd
     1     1     1
Direct
  0.0000000000000000  0.0000000000000000  0.0000000000000000
  0.5000000000000000  0.5000000000000000  0.5000000000000000
  0.2500000000000000  0.2500000000000000  0.2500000000000000
 
  0.00000000E+00  0.00000000E+00  0.00000000E+00
  0.00000000E+00  0.00000000E+00  0.00000000E+00
  0.00000000E+00  0.00000000E+00  0.00000000E+00
