generated by phonopy                    
    1.000000000000000     
     0.0000000000000000    3.1164244400071195    3.1164244400071195
     3.1164244400071195    0.0000000000000000    3.1164244400071195
     3.1164244400071195    3.1164244400071195   -0.0000000000000000
   Al   Sb
     1     1
Direct
  0.0000000000000000  0.0000000000000000  0.0000000000000000
  0.7500000000000000  0.7500000000000000  0.7500000000000000
 
  0.00000000E+00  0.00000000E+00  0.00000000E+00
  0.00000000E+00  0.00000000E+00  0.00000000E+00
