generated by phonopy                    
    1.000000000000000     
     3.1121149182793379    0.0000000000000000    0.0000000000000000
    -1.5560574591396690    2.6951705787264388   -0.0000000000000000
     0.0000000000000000    0.0000000000000000    4.9902910622273131
   Al   N 
     2     2
Direct
  0.6666666666666643  0.3333333333333357  0.4992746908100116
  0.3333333333333357  0.6666666666666643  0.9992746908100116
  0.6666666666666643  0.3333333333333357  0.8807253091899838
  0.3333333333333357  0.6666666666666643  0.3807253091899838
