generated by phonopy                    
    1.000000000000000     
     2.2264592475880565    1.2854468459346959    8.1604910756205218
    -2.2264592475880565    1.2854468459346959    8.1604910756205218
    -0.0000000000000000   -2.5708936918693919    8.1604910756205218
   Tb   Tl   Te
     1     1     2
Direct
  0.0000000000000000  0.0000000000000000  0.0000000000000000
  0.5000000000000000  0.5000000000000000  0.5000000000000000
  0.7382974629933514  0.7382974629933514  0.7382974629933514
  0.2617025370066486  0.2617025370066486  0.2617025370066486
 
  0.00000000E+00  0.00000000E+00  0.00000000E+00
  0.00000000E+00  0.00000000E+00  0.00000000E+00
  0.00000000E+00  0.00000000E+00  0.00000000E+00
  0.00000000E+00  0.00000000E+00  0.00000000E+00
