generated by phonopy                    
    1.000000000000000     
     1.9946481718509794    1.1516106589567583    6.5935869300000860
    -1.9946481718509799    1.1516106589567583    6.5935869300000860
     0.0000000000000005   -2.3032213179135161    6.5935869300000860
   Na   Tb   S 
     1     1     2
Direct
  0.5000000000000000  0.5000000000000000  0.5000000000000000
  0.0000000000000000  0.0000000000000000  0.0000000000000000
  0.7432487033333359  0.7432487033333359  0.7432487033333359
  0.2567512966666641  0.2567512966666641  0.2567512966666641
