generated by phonopy
   1.0
     4.5694122286313199    0.0000000000000000    0.0000000000000000
    -2.2847061143156600    3.9572270703579902    0.0000000000000000
     0.0000000000000000    0.0000000000000000    7.7421834192845038
Ba Cd As
   1    2    2
Direct
  0.0000000000000000  0.0000000000000000  0.0000000000000000
  0.6666666666666666  0.3333333333333333  0.3701966233580478
  0.3333333333333334  0.6666666666666667  0.6298033766419522
  0.6666666666666666  0.3333333333333333  0.7377612590366738
  0.3333333333333334  0.6666666666666667  0.2622387409633262
