generated by phonopy                    
    1.000000000000000     
     2.0522422607221027    1.1848626216702320    6.5034717412518548
    -2.0522422607221027    1.1848626216702320    6.5034717412518548
    -0.0000000000000001   -2.3697252433404636    6.5034717412518548
   Li   Gd   Se
     1     1     2
Direct
  0.5000000000000000  0.5000000000000000  0.5000000000000000
  0.0000000000000000  0.0000000000000000  0.0000000000000000
  0.7516885681154548  0.7516885681154548  0.7516885681154548
  0.2483114318845452  0.2483114318845452  0.2483114318845452
