generated by phonopy
   1.0
     4.9404075983289406    0.0000000000000000    0.0000000000000000
    -2.4702037991644703    4.2785184852025298    0.0000000000000000
     0.0000000000000000    0.0000000000000000    9.1802896699999987
Ba Li Sb
   2    2    2
Direct
  0.0000000000000000  0.0000000000000000  0.5000000000000001
  0.0000000000000000  0.0000000000000000  0.0000000000000000
  0.6666666666666666  0.3333333333333333  0.7500000000000002
  0.3333333333333334  0.6666666666666667  0.2500000000000001
  0.6666666666666666  0.3333333333333333  0.2500000000000001
  0.3333333333333334  0.6666666666666667  0.7500000000000002
