Na1 Tm1 O2                              
    1.000000000000000     
     3.3338350205191740    0.0000000000000000    0.0000000000000000
    -1.6669175102595870    0.9623954705435971    5.4449346191633854
     1.6669175102595870   -2.8871864016535764    0.0000000000048642
   Na   Tm   O 
     1     1     2
Direct
  0.5000000000000000  0.5000000000000000  0.5000000000000000
  0.0000000000000000  0.0000000000000000  0.0000000000000000
  0.2624161498024407  0.7872474494073174  0.2624161498024407
  0.7375838501975593  0.2127525505926826  0.7375838501975593
 
  0.00000000E+00  0.00000000E+00  0.00000000E+00
  0.00000000E+00  0.00000000E+00  0.00000000E+00
  0.00000000E+00  0.00000000E+00  0.00000000E+00
  0.00000000E+00  0.00000000E+00  0.00000000E+00
