generated by phonopy                    
    1.000000000000000     
     2.0545426728599701    1.1861907652372767    6.9443590925239738
    -2.0545426728599701    1.1861907652372767    6.9443590925239738
    -0.0000000000000001   -2.3723815304745535    6.9443590925239738
   Na   Ho   Se
     1     1     2
Direct
  0.5000000000000000  0.5000000000000000  0.5000000000000000
  0.0000000000000000  0.0000000000000000  0.0000000000000000
  0.7434427622387290  0.7434427622387290  0.7434427622387290
  0.2565572377612710  0.2565572377612710  0.2565572377612710
 
  0.00000000E+00  0.00000000E+00  0.00000000E+00
  0.00000000E+00  0.00000000E+00  0.00000000E+00
  0.00000000E+00  0.00000000E+00  0.00000000E+00
  0.00000000E+00  0.00000000E+00  0.00000000E+00
