generated by phonopy                    
    1.000000000000000     
     2.1702162320880669    1.2529749257957403    7.7129573998341545
    -2.1702162320880669    1.2529749257957403    7.7129573998341545
     0.0000000000000000   -2.5059498515914806    7.7129573998341545
   Pr   Tl   Se
     1     1     2
Direct
  0.0000000000000000  0.0000000000000000  0.0000000000000000
  0.5000000000000000  0.5000000000000000  0.5000000000000000
  0.7378264577426208  0.7378264577426208  0.7378264577426208
  0.2621735422573792  0.2621735422573792  0.2621735422573792
