generated by phonopy                    
    1.000000000000000     
     1.5396670602545204    0.8889271917003472    5.7017403558728592
    -1.5396670602545206    0.8889271917003472    5.7017403558728592
    -0.0000000000000000   -1.7778543834006943    5.7017403558728592
   Cu   Rh   O 
     1     1     2
Direct
  0.0000000000000000  0.0000000000000000  0.0000000000000000
  0.5000000000000000  0.5000000000000000  0.5000000000000000
  0.8925455734512511  0.8925455734512511  0.8925455734512511
  0.1074544265487489  0.1074544265487489  0.1074544265487489
 
  0.00000000E+00  0.00000000E+00  0.00000000E+00
  0.00000000E+00  0.00000000E+00  0.00000000E+00
  0.00000000E+00  0.00000000E+00  0.00000000E+00
  0.00000000E+00  0.00000000E+00  0.00000000E+00
