generated by phonopy                    
    1.000000000000000     
     1.9687876022039710    1.1366800521096605    6.5945361023736737
    -1.9687876022039712    1.1366800521096605    6.5945361023736737
     0.0000000000000003   -2.2733601042193210    6.5945361023736737
   Na   Ho   S 
     1     1     2
Direct
  0.5000000000000000  0.5000000000000000  0.5000000000000000
  0.0000000000000000  0.0000000000000000  0.0000000000000000
  0.7428715051559394  0.7428715051559394  0.7428715051559394
  0.2571284948440606  0.2571284948440606  0.2571284948440606
