generated by phonopy
   1.0
     3.9536121504927304    0.0000000000000000    0.0000000000000000
     0.0000000000000000    3.9536121504927304    0.0000000000000000
     0.0000000000000000    0.0000000000000000    6.9383392133536246
Pr S F
   2    2    2
Direct
  0.0000000000000000  0.5000000000000000  0.7697012056703724
  0.5000000000000000  0.0000000000000000  0.2302987943296274
  0.5000000000000000  0.0000000000000000  0.6472868879025879
  0.0000000000000000  0.5000000000000000  0.3527131120974119
  0.5000000000000000  0.5000000000000000  0.0000000000000000
  0.0000000000000000  0.0000000000000000  0.0000000000000000
