generated by phonopy                    
    1.000000000000000     
     0.0000000000000000    3.2574700168014439    3.2574700168014439
     3.2574700168014439    0.0000000000000000    3.2574700168014439
     3.2574700168014439    3.2574700168014439   -0.0000000000000000
   Li   Te
     2     1
Direct
  0.2500000000000000  0.2500000000000000  0.2500000000000000
  0.7500000000000000  0.7500000000000000  0.7500000000000000
  0.0000000000000000  0.0000000000000000  0.0000000000000000
 
  0.00000000E+00  0.00000000E+00  0.00000000E+00
  0.00000000E+00  0.00000000E+00  0.00000000E+00
  0.00000000E+00  0.00000000E+00  0.00000000E+00
