generated by phonopy
   1.0
     3.8063556688600046    0.0000000000000000    0.0000000000000000
     0.0000000000000000    3.8063556688600046    0.0000000000000000
     0.0000000000000000    0.0000000000000000    8.5228748090843922
Ho Br O
   2    2    2
Direct
  0.5000000000000000  0.0000000000000000  0.1330213167620401
  0.0000000000000000  0.5000000000000000  0.8669786832379602
  0.5000000000000000  0.0000000000000000  0.6724013974894449
  0.0000000000000000  0.5000000000000000  0.3275986025105552
  0.5000000000000000  0.5000000000000000  0.0000000000000000
  0.0000000000000000  0.0000000000000000  0.0000000000000000
