generated by phonopy                    
    1.000000000000000     
     4.4738737225835639    0.0000000000000000    0.0000000000000000
    -2.2369368612917819    3.8744882970810197    0.0000000000000000
     0.0000000000000000    0.0000000000000000    5.1505637490631235
   Sr   Ga   Sn   H 
     1     1     1     1
Direct
 -0.0000000000000000 -0.0000000000000000  0.9986703328566113
  0.6666666666666643  0.3333333333333357  0.6002395657750695
  0.3333333333333357  0.6666666666666643  0.4509991397578502
  0.6666666666666643  0.3333333333333357  0.9393929616104640
 
  0.00000000E+00  0.00000000E+00  0.00000000E+00
  0.00000000E+00  0.00000000E+00  0.00000000E+00
  0.00000000E+00  0.00000000E+00  0.00000000E+00
  0.00000000E+00  0.00000000E+00  0.00000000E+00
