generated by phonopy                    
    1.000000000000000     
     4.6077529817428031    0.0000000000000000    0.0000000000000000
    -2.3038764908714020    3.9904311365527629   -0.0000000000000000
     0.0000000000000000    0.0000000000000000    7.4768115912925843
   Mg   Te
     2     2
Direct
  0.3333333333333357  0.6666666666666643  0.9962914383537225
  0.6666666666666643  0.3333333333333357  0.4962914383537154
  0.3333333333333357  0.6666666666666643  0.3737085616462821
  0.6666666666666643  0.3333333333333357  0.8737085616462821
