generated by phonopy
   1.0
     2.0981042106143404    1.2113410307860768    6.7725592549595284
    -2.0981042106143408    1.2113410307860768    6.7725592549595284
    -0.0000000000000000   -2.4226820615721532    6.7725592549595284
Ti Fe Ni Sb
   2    1    1    2
Direct
  0.6281131231022361  0.6281131231022361  0.6281131231022362
  0.1211403312779235  0.1211403312779235  0.1211403312779235
  0.0027407730895987  0.0027407730895987  0.0027407730895987
  0.4989361082306919  0.4989361082306919  0.4989361082306920
  0.8764506918020817  0.8764506918020819  0.8764506918020819
  0.3726189724983276  0.3726189724983276  0.3726189724983276
