generated by phonopy
   1.0
     4.0113888516883236    0.0000000000000000    0.0000000000000000
    -2.0056944258441618    3.4739646500197758    0.0000000000000000
     0.0000000000000000    0.0000000000000000    6.9103070974851413
Th S N
   2    1    2
Direct
  0.6666666666666666  0.3333333333333333  0.7125864648364060
  0.3333333333333334  0.6666666666666667  0.2874135351635942
  0.0000000000000000  0.0000000000000000  0.0000000000000000
  0.3333333333333333  0.6666666666666666  0.6312865700869212
  0.6666666666666667  0.3333333333333334  0.3687134299130789
