generated by phonopy
   1.0
    -4.0465654279266552    4.0465654279266552    2.3755036290266447
     4.0465654279266552   -4.0465654279266552    2.3755036290266447
     4.0465654279266552    4.0465654279266552   -2.3755036290266447
Cd As
   2    4
Direct
  0.7500000000000000  0.2500000000000001  0.5000000000000000
  0.0000000000000000  0.0000000000000000  0.0000000000000000
  0.3750000000000002  0.5645451950785410  0.6895451950785407
  0.3145451950785410  0.1250000000000002  0.6895451950785407
  0.8750000000000001  0.6854548049214594  0.3104548049214593
  0.4354548049214595  0.6250000000000002  0.3104548049214593
