generated by phonopy                    
    1.000000000000000     
     1.7381390726334314    1.0035150614739183    6.4690620749760752
    -1.7381390726334314    1.0035150614739183    6.4690620749760752
    -0.0000000000000000   -2.0070301229478367    6.4690620749760752
   Rb   Y    O 
     1     1     2
Direct
  0.0000000000000000  0.0000000000000000  0.0000000000000000
  0.5000000000000000  0.5000000000000000  0.5000000000000000
  0.7743281958860564  0.7743281958860564  0.7743281958860564
  0.2256718041139436  0.2256718041139436  0.2256718041139436
