generated by phonopy                    
    1.000000000000000     
     2.0069976228391790    1.1587406178091397    7.7806975566344425
    -2.0069976228391795    1.1587406178091397    7.7806975566344425
     0.0000000000000006   -2.3174812356182795    7.7806975566344425
   Sr   I    N 
     2     1     1
Direct
  0.2233924393034528  0.2233924393034528  0.2233924393034528
  0.7766075606965472  0.7766075606965472  0.7766075606965472
  0.0000000000000000  0.0000000000000000  0.0000000000000000
  0.5000000000000000  0.5000000000000000  0.5000000000000000
 
  0.00000000E+00  0.00000000E+00  0.00000000E+00
  0.00000000E+00  0.00000000E+00  0.00000000E+00
  0.00000000E+00  0.00000000E+00  0.00000000E+00
  0.00000000E+00  0.00000000E+00  0.00000000E+00
