generated by phonopy                    
    1.000000000000000     
     2.1022614240236881    1.2137411990670419    7.7362233781352634
    -2.1022614240236881    1.2137411990670419    7.7362233781352634
    -0.0000000000000000   -2.4274823981340838    7.7362233781352634
   Gd   Tl   Se
     1     1     2
Direct
  0.5000000000000000  0.5000000000000000  0.5000000000000000
  0.0000000000000000  0.0000000000000000  0.0000000000000000
  0.7643754367959588  0.7643754367959588  0.7643754367959588
  0.2356245632040412  0.2356245632040412  0.2356245632040412
 
  0.00000000E+00  0.00000000E+00  0.00000000E+00
  0.00000000E+00  0.00000000E+00  0.00000000E+00
  0.00000000E+00  0.00000000E+00  0.00000000E+00
  0.00000000E+00  0.00000000E+00  0.00000000E+00
