generated by phonopy
   1.0
    -2.0627998241822700    2.0627998241822700    7.1529604003859300
     2.0627998241822700   -2.0627998241822700    7.1529604003859300
     2.0627998241822700    2.0627998241822700   -7.1529604003859300
Rb Hg O
   2    1    2
Direct
  0.6666277835046728  0.6666277835046728  0.0000000000000000
  0.3333722164953272  0.3333722164953272  0.0000000000000000
  0.0000000000000000  0.0000000000000000  0.0000000000000000
  0.8604930042962415  0.8604930042962415  0.0000000000000000
  0.1395069957037585  0.1395069957037585  0.0000000000000000
