generated by phonopy                    
    1.000000000000000     
     0.0000000000000000    3.0444602348550163    3.0444602348550163
     3.0444602348550163   -0.0000000000000000    3.0444602348550163
     3.0444602348550163    3.0444602348550163    0.0000000000000000
   Hf   Ni   Sn
     1     1     1
Direct
  0.0000000000000000  0.0000000000000000  0.0000000000000000
  0.7500000000000000  0.7500000000000000  0.7500000000000000
  0.5000000000000000  0.5000000000000000  0.5000000000000000
 
  0.00000000E+00  0.00000000E+00  0.00000000E+00
  0.00000000E+00  0.00000000E+00  0.00000000E+00
  0.00000000E+00  0.00000000E+00  0.00000000E+00
