generated by phonopy                    
    1.000000000000000     
     2.0675491699997011    1.1937000698621145    6.9262442400000346
    -2.0675491699997011    1.1937000698621145    6.9262442400000346
     0.0000000000000000   -2.3874001397242290    6.9262442400000346
   Na   Tb   Se
     1     1     2
Direct
  0.0000000000000000  0.0000000000000000  0.0000000000000000
  0.5000000000000000  0.5000000000000000  0.5000000000000000
  0.7557473497144224  0.7557473497144224  0.7557473497144224
  0.2442526502855777  0.2442526502855777  0.2442526502855777
