generated by phonopy                    
    1.000000000000000     
     4.4088683379121969    0.0000000000000000    0.0000000000000000
    -2.2044341689560984    3.8181919825728361    0.0000000000000000
     0.0000000000000000    0.0000000000000000    7.2433599087166307
   Bi   Te   I 
     1     1     1
Direct
 -0.0000000000000000 -0.0000000000000000  0.9219112824890652
  0.6666666666666643  0.3333333333333357  0.6863438478381689
  0.3333333333333357  0.6666666666666643  0.2110448596727634
 
  0.00000000E+00  0.00000000E+00  0.00000000E+00
  0.00000000E+00  0.00000000E+00  0.00000000E+00
  0.00000000E+00  0.00000000E+00  0.00000000E+00
