generated by phonopy                    
    1.000000000000000     
    -0.0000000000000000    2.3980146943169105    2.3980146943169105
     2.3980146943169105   -0.0000000000000000    2.3980146943169105
     2.3980146943169105    2.3980146943169105    0.0000000000000000
   Ca   O 
     1     1
Direct
  0.0000000000000000  0.0000000000000000  0.0000000000000000
  0.5000000000000000  0.5000000000000000  0.5000000000000000
 
  0.00000000E+00  0.00000000E+00  0.00000000E+00
  0.00000000E+00  0.00000000E+00  0.00000000E+00
