generated by phonopy
   1.0
     3.6067311631464927    0.0000000000000000    0.0000000000000000
     0.0000000000000000    3.6067311631464927    0.0000000000000000
     0.0000000000000000    0.0000000000000000    5.9979959599251300
Li Be P
   2    2    2
Direct
  0.5000000000000000  0.0000000000000000  0.3524257064521807
  0.0000000000000000  0.5000000000000000  0.6475742935478195
  0.5000000000000000  0.5000000000000000  0.0000000000000000
  0.0000000000000000  0.0000000000000000  0.0000000000000000
  0.5000000000000000  0.0000000000000000  0.7819348181225156
  0.0000000000000000  0.5000000000000000  0.2180651818774846
