generated by phonopy                    
    1.000000000000000     
     0.0000000000000000    2.3076079082511924    2.3076079082511924
     2.3076079082511924   -0.0000000000000000    2.3076079082511924
     2.3076079082511924    2.3076079082511924   -0.0000000000000000
   Li   O 
     2     1
Direct
  0.7500000000000000  0.7500000000000000  0.7500000000000000
  0.2500000000000000  0.2500000000000000  0.2500000000000000
  0.0000000000000000  0.0000000000000000  0.0000000000000000
 
  0.00000000E+00  0.00000000E+00  0.00000000E+00
  0.00000000E+00  0.00000000E+00  0.00000000E+00
  0.00000000E+00  0.00000000E+00  0.00000000E+00
