generated by phonopy                    
    1.000000000000000     
     1.6842787411457145    0.9724187845908420    5.4555915438236839
    -1.6842787411457143    0.9724187845908420    5.4555915438236839
    -0.0000000000000001   -1.9448375691816839    5.4555915438236839
   Na   Tl   O 
     1     1     2
Direct
  0.5000000000000000  0.5000000000000000  0.5000000000000000
  0.0000000000000000  0.0000000000000000  0.0000000000000000
  0.7436628284794438  0.7436628284794438  0.7436628284794438
  0.2563371715205562  0.2563371715205562  0.2563371715205562
 
  0.00000000E+00  0.00000000E+00  0.00000000E+00
  0.00000000E+00  0.00000000E+00  0.00000000E+00
  0.00000000E+00  0.00000000E+00  0.00000000E+00
  0.00000000E+00  0.00000000E+00  0.00000000E+00
