generated by phonopy                    
    1.000000000000000     
     1.9053159525061005    1.1000346780706862    6.4071956918133202
    -1.9053159525061008    1.1000346780706862    6.4071956918133202
     0.0000000000000002   -2.2000693561413724    6.4071956918133202
   Sr   Hg   O 
     1     1     2
Direct
  0.5000000000000000  0.5000000000000000  0.5000000000000000
  0.0000000000000000  0.0000000000000000  0.0000000000000000
  0.1034527180702298  0.1034527180702298  0.1034527180702298
  0.8965472819297702  0.8965472819297702  0.8965472819297702
 
  0.00000000E+00  0.00000000E+00  0.00000000E+00
  0.00000000E+00  0.00000000E+00  0.00000000E+00
  0.00000000E+00  0.00000000E+00  0.00000000E+00
  0.00000000E+00  0.00000000E+00  0.00000000E+00
