generated by phonopy                    
    1.000000000000000     
     2.0019754711149536    1.1558410771592462    6.1836485316511851
    -2.0019754711149536    1.1558410771592462    6.1836485316511851
     0.0000000000000001   -2.3116821543184924    6.1836485316511851
   Li   Sm   S 
     1     1     2
Direct
  0.0000000000000000  0.0000000000000000  0.0000000000000000
  0.5000000000000000  0.5000000000000000  0.5000000000000000
  0.7483423429668150  0.7483423429668150  0.7483423429668150
  0.2516576570331850  0.2516576570331850  0.2516576570331850
