generated by phonopy                    
    1.000000000000000     
     2.1986967451617190    1.2694181576854726    8.1686776076927732
    -2.1986967451617194    1.2694181576854726    8.1686776076927732
     0.0000000000000000   -2.5388363153709448    8.1686776076927732
   Tm   Tl   Te
     1     1     2
Direct
  0.5000000000000000  0.5000000000000000  0.5000000000000000
  0.0000000000000000  0.0000000000000000  0.0000000000000000
  0.7629962222279048  0.7629962222279048  0.7629962222279048
  0.2370037777720952  0.2370037777720952  0.2370037777720952
