generated by phonopy                    
    1.000000000000000     
     1.9880837257962483    1.1478206742599784    7.6388230164863549
    -1.9880837257962483    1.1478206742599784    7.6388230164863549
     0.0000000000000001   -2.2956413485199567    7.6388230164863549
   Rb   Lu   S 
     1     1     2
Direct
  0.0000000000000000  0.0000000000000000  0.0000000000000000
  0.5000000000000000  0.5000000000000000  0.5000000000000000
  0.2296927126476220  0.2296927126476220  0.2296927126476220
  0.7703072873523781  0.7703072873523781  0.7703072873523781
