generated by phonopy
   1.0
     3.8343014149745085    0.0000000000000000    0.0000000000000000
     0.0000000000000000    3.8343014149745085    0.0000000000000000
     0.0000000000000000    0.0000000000000000    8.2747170630564941
Ca H Br
   2    2    2
Direct
  0.0000000000000000  0.5000000000000000  0.1562246137661346
  0.5000000000000000  0.0000000000000000  0.8437753862338652
  0.5000000000000000  0.5000000000000000  0.0000000000000000
  0.0000000000000000  0.0000000000000000  0.0000000000000000
  0.0000000000000000  0.5000000000000000  0.6808065117382325
  0.5000000000000000  0.0000000000000000  0.3191934882617674
