generated by phonopy                    
    1.000000000000000     
     4.1451126233567761    0.0000000000000000    0.0000000000000000
    -2.0725563116783881    3.5897728333745258    0.0000000000000000
     0.0000000000000000    0.0000000000000000    4.7875073245227888
   Ca   Ga   Ge   H 
     1     1     1     1
Direct
  0.3333333333333357  0.6666666666666643  0.9999484465891968
  0.0000000000000000  0.0000000000000000  0.5646128020328933
  0.6666666666666643  0.3333333333333357  0.4245832124172746
 -0.0000000000000000  0.0000000000000000  0.9296545389606352
 
  0.00000000E+00  0.00000000E+00  0.00000000E+00
  0.00000000E+00  0.00000000E+00  0.00000000E+00
  0.00000000E+00  0.00000000E+00  0.00000000E+00
  0.00000000E+00  0.00000000E+00  0.00000000E+00
