generated by phonopy
   1.0
     4.0413884538405300    0.0000000000000000    0.0000000000000000
    -2.0206942269202650    3.4999450675870123    0.0000000000000000
     0.0000000000000000    0.0000000000000000    8.0206700903262664
Pr H Se
   2    2    2
Direct
  0.3333333333333334  0.6666666666666667  0.2500000000000000
  0.6666666666666667  0.3333333333333334  0.7500000000000000
  0.3333333333333334  0.6666666666666667  0.7500000000000000
  0.6666666666666667  0.3333333333333334  0.2500000000000000
  0.0000000000000000  0.0000000000000000  0.0000000000000000
  0.0000000000000000  0.0000000000000000  0.5000000000000000
