generated by phonopy
   1.0
     4.0026247347718842    0.0000000000000000    0.0000000000000000
    -2.0013123673859421    3.4663747021284026    0.0000000000000000
     0.0000000000000000    0.0000000000000000    7.9805305708307355
Nd H Se
   2    2    2
Direct
  0.6666666666666666  0.3333333333333333  0.7499999999999998
  0.3333333333333334  0.6666666666666667  0.2499999999999999
  0.6666666666666666  0.3333333333333333  0.2499999999999999
  0.3333333333333334  0.6666666666666667  0.7499999999999998
  0.0000000000000000  0.0000000000000000  0.4999999999999999
  0.0000000000000000  0.0000000000000000  0.0000000000000000
