generated by phonopy
   1.0
     3.5331053724858021    0.0000000000000000    0.0000000000000000
    -1.7665526862429011    3.0597590068199860    0.0000000000000000
     0.0000000000000000    0.0000000000000000    6.0661322473432628
Ca Mg N
   1    2    2
Direct
  0.0000000000000000  0.0000000000000000  0.5000000000000000
  0.3333333333333333  0.6666666666666666  0.8592536932123167
  0.6666666666666667  0.3333333333333334  0.1407463067876833
  0.3333333333333333  0.6666666666666666  0.2341185393077510
  0.6666666666666667  0.3333333333333334  0.7658814606922490
