generated by phonopy                    
    1.000000000000000     
     2.1515698720273457    1.2422094447952765    7.4742037386103171
    -2.1515698720273457    1.2422094447952765    7.4742037386103171
     0.0000000000000001   -2.4844188895905530    7.4742037386103171
   Ca   P    I 
     2     1     1
Direct
  0.7704899657442041  0.7704899657442041  0.7704899657442041
  0.2295100342557959  0.2295100342557959  0.2295100342557959
  0.5000000000000000  0.5000000000000000  0.5000000000000000
  0.0000000000000000  0.0000000000000000  0.0000000000000000
