generated by phonopy                    
    1.000000000000000     
     1.5410108825827902    0.8897030478833170    4.7048432876204753
    -1.5410108825827904    0.8897030478833170    4.7048432876204753
     0.0000000000000003   -1.7794060957666336    4.7048432876204753
   Li   Rh   O 
     1     1     2
Direct
  0.5000000000000000  0.5000000000000000  0.5000000000000000
  0.0000000000000000  0.0000000000000000  0.0000000000000000
  0.7425968994964194  0.7425968994964194  0.7425968994964194
  0.2574031005035806  0.2574031005035806  0.2574031005035806
 
  0.00000000E+00  0.00000000E+00  0.00000000E+00
  0.00000000E+00  0.00000000E+00  0.00000000E+00
  0.00000000E+00  0.00000000E+00  0.00000000E+00
  0.00000000E+00  0.00000000E+00  0.00000000E+00
