generated by phonopy                    
    1.000000000000000     
     2.0343047072562577    1.1745063703481231    7.6490087500000152
    -2.0343047072562572    1.1745063703481231    7.6490087500000152
     0.0000000000000003   -2.3490127406962462    7.6490087500000152
   Rb   Y    S 
     1     1     2
Direct
  0.0000000000000000  0.0000000000000000  0.0000000000000000
  0.5000000000000000  0.5000000000000000  0.5000000000000000
  0.7691510599999987  0.7691510599999987  0.7691510599999987
  0.2308489400000013  0.2308489400000013  0.2308489400000013
