generated by phonopy
   1.0
     4.9003534699999998    0.0000000000000000    0.0000000000000000
     0.0000000000000000    4.9003534699999998    0.0000000000000000
     0.0000000000000000    0.0000000000000000    4.9003534699999998
Ca Bi N
   3    1    1
Direct
  0.5000000000000000  0.0000000000000000  0.5000000000000000
  0.0000000000000000  0.5000000000000000  0.5000000000000000
  0.5000000000000000  0.5000000000000000  0.0000000000000000
  0.0000000000000000  0.0000000000000000  0.0000000000000000
  0.5000000000000000  0.5000000000000000  0.5000000000000000
