generated by phonopy
   1.0
     4.0167938916177155    0.0000000000000000    0.0000000000000000
     0.0000000000000000    4.0167938916177155    0.0000000000000000
     0.0000000000000000    0.0000000000000000    6.9471109821958050
La S F
   2    2    2
Direct
  0.0000000000000000  0.5000000000000000  0.7681455648745086
  0.5000000000000000  0.0000000000000000  0.2318544351254914
  0.5000000000000000  0.0000000000000000  0.6494328946830592
  0.0000000000000000  0.5000000000000000  0.3505671053169408
  0.5000000000000000  0.5000000000000000  0.0000000000000000
  0.0000000000000000  0.0000000000000000  0.0000000000000000
