generated by phonopy                    
    1.000000000000000     
     4.5942188658687177    0.0000000000000000    0.0000000000000000
    -2.2971094329343589    3.9787102483880412    0.0000000000000000
     0.0000000000000000    0.0000000000000000    5.3871614420183551
   Ba   Ga   Sn   H 
     1     1     1     1
Direct
  0.3333333333333357  0.6666666666666643  0.9995738040093352
 -0.0000000000000000 -0.0000000000000000  0.4140108758473591
  0.6666666666666643  0.3333333333333357  0.5413265919593998
  0.0000000000000000 -0.0000000000000000  0.0887877281839096
 
  0.00000000E+00  0.00000000E+00  0.00000000E+00
  0.00000000E+00  0.00000000E+00  0.00000000E+00
  0.00000000E+00  0.00000000E+00  0.00000000E+00
  0.00000000E+00  0.00000000E+00  0.00000000E+00
