generated by phonopy
   1.0
     4.1039565568829461    0.0000000000000000    0.0000000000000000
     0.0000000000000000    4.1039565568829461    0.0000000000000000
     0.0000000000000000    0.0000000000000000    6.9362682680755627
Sr Cl F
   2    2    2
Direct
  0.0000000000000000  0.5000000000000000  0.7965215978664016
  0.5000000000000000  0.0000000000000000  0.2034784021335981
  0.5000000000000000  0.0000000000000000  0.6421911579980628
  0.0000000000000000  0.5000000000000000  0.3578088420019370
  0.5000000000000000  0.5000000000000000  0.0000000000000000
  0.0000000000000000  0.0000000000000000  0.0000000000000000
