generated by phonopy                    
    1.000000000000000     
     2.2800163768261896    1.3163680689173560    8.1459743927196335
    -2.2800163768261901    1.3163680689173560    8.1459743927196335
     0.0000000000000001   -2.6327361378347121    8.1459743927196335
   Nd   Tl   Te
     1     1     2
Direct
  0.0000000000000000  0.0000000000000000  0.0000000000000000
  0.5000000000000000  0.5000000000000000  0.5000000000000000
  0.7404967224601364  0.7404967224601364  0.7404967224601364
  0.2595032775398636  0.2595032775398636  0.2595032775398636
