generated by phonopy
   1.0
     3.3082615108357021   -1.9100279670454730    0.0000000000000000
     3.3082615108357021    1.9100279670454730    0.0000000000000000
    -0.0000041262893142    0.0000000000000000    6.7907669912605142
Y Se O
   2    1    2
Direct
  0.3333819513335357  0.3332861429826579  0.2095622514228594
  0.6667138570173421  0.6666180486664643  0.7904377485771406
  0.0000026797703186  0.9999973202296815  0.5000000000000000
  0.3333839638707516  0.3332811219919876  0.8739312050133421
  0.6667188780080124  0.6666160361292484  0.1260687949866579
