generated by phonopy                    
    1.000000000000000     
     2.0912966357889036    1.2074106756280822    7.7257420294242474
    -2.0912966357889040    1.2074106756280822    7.7257420294242474
     0.0000000000000001   -2.4148213512561645    7.7257420294242474
   Tb   Tl   Se
     1     1     2
Direct
 -0.0000000000000000  0.0000000000000000 -0.0000000000000000
  0.5000000000000000  0.5000000000000000  0.5000000000000000
  0.2645334151871897  0.2645334151871897  0.2645334151871897
  0.7354665848128102  0.7354665848128102  0.7354665848128102
