generated by phonopy                    
    1.000000000000000     
     2.2633689192757496    1.3067566548192862    8.2520199312641029
    -2.2633689192757491    1.3067566548192862    8.2520199312641029
    -0.0000000000000001   -2.6135133096385723    8.2520199312641029
   K    Gd   Te
     1     1     2
Direct
  0.5000000000000000  0.5000000000000000  0.5000000000000000
  0.0000000000000000  0.0000000000000000  0.0000000000000000
  0.7365859222375661  0.7365859222375661  0.7365859222375661
  0.2634140777624339  0.2634140777624339  0.2634140777624339
