generated by phonopy
   1.0
     0.0000000000000000    3.6568992067447161    3.6568992067447161
     3.6568992067447161    0.0000000000000000    3.6568992067447161
     3.6568992067447161    3.6568992067447161    0.0000000000000000
Nd In Cu
   1    1    4
Direct
  0.2500000000000000  0.2500000000000000  0.2500000000000000
  0.0000000000000000  0.0000000000000000  0.0000000000000000
  0.6258657839876964  0.6258657839876964  0.6258657839876964
  0.6258657839876964  0.6258657839876964  0.1224026480369107
  0.6258657839876964  0.1224026480369107  0.6258657839876964
  0.1224026480369107  0.6258657839876964  0.6258657839876964
