generated by phonopy                    
    1.000000000000000     
     2.0323677709144543    1.1733880796297793    7.6561230679618291
    -2.0323677709144543    1.1733880796297793    7.6561230679618291
     0.0000000000000000   -2.3467761592595586    7.6561230679618291
   Rb   Dy   S 
     1     1     2
Direct
  0.0000000000000000  0.0000000000000000  0.0000000000000000
  0.5000000000000000  0.5000000000000000  0.5000000000000000
  0.7691762561086506  0.7691762561086506  0.7691762561086506
  0.2308237438913494  0.2308237438913494  0.2308237438913494
