generated by phonopy                    
    1.000000000000000     
     0.0000000000000000    2.9891054754937434    2.9891054754937434
     2.9891054754937434    0.0000000000000000    2.9891054754937434
     2.9891054754937434    2.9891054754937434   -0.0000000000000000
   Ti   Ge   Pt
     1     1     1
Direct
  0.0000000000000000  0.0000000000000000  0.0000000000000000
  0.5000000000000000  0.5000000000000000  0.5000000000000000
  0.2500000000000000  0.2500000000000000  0.2500000000000000
 
  0.00000000E+00  0.00000000E+00  0.00000000E+00
  0.00000000E+00  0.00000000E+00  0.00000000E+00
  0.00000000E+00  0.00000000E+00  0.00000000E+00
