generated by phonopy                    
    1.000000000000000     
    -0.0000000000000000    3.8493226880762137    3.8493226880762137
     3.8493226880762137    0.0000000000000000    3.8493226880762137
     3.8493226880762137    3.8493226880762137    0.0000000000000000
   Ca   Sn   Hg
     2     1     1
Direct
  0.7500000000000000  0.7500000000000000  0.7500000000000000
  0.2500000000000000  0.2500000000000000  0.2500000000000000
  0.0000000000000000  0.0000000000000000  0.0000000000000000
  0.5000000000000000  0.5000000000000000  0.5000000000000000
