generated by phonopy                    
    1.000000000000000     
    -0.0000000000000000    3.3358760198984152    3.3358760198984152
     3.3358760198984152   -0.0000000000000000    3.3358760198984152
     3.3358760198984152    3.3358760198984152   -0.0000000000000000
   Pr   Ni   Bi
     1     1     1
Direct
  0.5000000000000000  0.5000000000000000  0.5000000000000000
  0.7500000000000000  0.7500000000000000  0.7500000000000000
  0.0000000000000000  0.0000000000000000  0.0000000000000000
 
  0.00000000E+00  0.00000000E+00  0.00000000E+00
  0.00000000E+00  0.00000000E+00  0.00000000E+00
  0.00000000E+00  0.00000000E+00  0.00000000E+00
