generated by phonopy
   1.0
     4.4271874292742979    0.0000000000000000    0.0000000000000000
    -2.2135937146371489    3.8340567810666646    0.0000000000000000
     0.0000000000000000    0.0000000000000000    7.1916702530974517
Ca Cd As
   1    2    2
Direct
  0.0000000000000000  0.0000000000000000  0.0000000000000000
  0.3333333333333333  0.6666666666666666  0.6338341516550726
  0.6666666666666667  0.3333333333333334  0.3661658483449272
  0.3333333333333333  0.6666666666666666  0.2338700135492928
  0.6666666666666667  0.3333333333333334  0.7661299864507070
