generated by phonopy                    
    1.000000000000000     
     2.0018383559683355    1.1557619136924366    7.3232859624243476
    -2.0018383559683359    1.1557619136924366    7.3232859624243476
     0.0000000000000003   -2.3115238273848733    7.3232859624243476
   K    Er   S 
     1     1     2
Direct
  0.5000000000000000  0.5000000000000000  0.5000000000000000
  0.0000000000000000  0.0000000000000000  0.0000000000000000
  0.7337576268945085  0.7337576268945085  0.7337576268945085
  0.2662423731054915  0.2662423731054915  0.2662423731054915
