generated by phonopy                    
    1.000000000000000     
     4.5523102602845302    0.0000000000000000   -0.0000000000000000
    -2.2761551301422651    3.9424163313149534    0.0000000000000000
     0.0000000000000000    0.0000000000000000    4.6228427473395293
   Ba   Li   As
     1     1     1
Direct
  0.0000000000000000  0.0000000000000000  0.0000000000000000
  0.3333333333333357  0.6666666666666643  0.5000000000000000
  0.6666666666666643  0.3333333333333357  0.5000000000000000
 
  0.00000000E+00  0.00000000E+00  0.00000000E+00
  0.00000000E+00  0.00000000E+00  0.00000000E+00
  0.00000000E+00  0.00000000E+00  0.00000000E+00
