generated by phonopy                    
    1.000000000000000     
     3.8068992350694941   -0.0000000000000000   -0.0000000000000000
    -1.9034496175347473    3.2968714472177303    0.0000000000000000
     0.0000000000000000   -0.0000000000000000    3.8811259083988090
   Ho   H    Se
     1     1     1
Direct
  0.6666666666666643  0.3333333333333357  0.5000000000000000
  0.3333333333333357  0.6666666666666643  0.5000000000000000
  0.0000000000000000  0.0000000000000000  0.0000000000000000
 
  0.00000000E+00  0.00000000E+00  0.00000000E+00
  0.00000000E+00  0.00000000E+00  0.00000000E+00
  0.00000000E+00  0.00000000E+00  0.00000000E+00
