generated by phonopy                    
    1.000000000000000     
     2.1006559265516533    1.2128142646693794    7.9351702047886308
    -2.1006559265516533    1.2128142646693794    7.9351702047886308
     0.0000000000000000   -2.4256285293387587    7.9351702047886308
   Rb   Ho   Se
     1     1     2
Direct
  0.0000000000000000 -0.0000000000000000 -0.0000000000000000
  0.5000000000000000  0.5000000000000000  0.5000000000000000
  0.2321103114175667  0.2321103114175667  0.2321103114175667
  0.7678896885824333  0.7678896885824333  0.7678896885824333
 
  0.00000000E+00  0.00000000E+00  0.00000000E+00
  0.00000000E+00  0.00000000E+00  0.00000000E+00
  0.00000000E+00  0.00000000E+00  0.00000000E+00
  0.00000000E+00  0.00000000E+00  0.00000000E+00
