generated by phonopy
   1.0
     4.5453288174842568    0.0000000000000000    0.0000000000000000
     0.0000000000000000    4.5453288174842568    0.0000000000000000
     0.0000000000000000    0.0000000000000000    4.5453288174842568
Na Br O
   3    1    1
Direct
  0.0000000000000000  0.5000000000000000  0.5000000000000000
  0.5000000000000000  0.0000000000000000  0.5000000000000000
  0.5000000000000000  0.5000000000000000  0.0000000000000000
  0.0000000000000000  0.0000000000000000  0.0000000000000000
  0.5000000000000000  0.5000000000000000  0.5000000000000000
