generated by phonopy
   1.0
    -1.8904727746230905    1.8904727746230905    4.7566974527958887
     1.8904727746230905   -1.8904727746230905    4.7566974527958887
     1.8904727746230905    1.8904727746230905   -4.7566974527958887
Ti O
   2    4
Direct
  0.9999999999999999  0.9999999999999999  0.9999999999999998
  0.7500000000000000  0.2500000000000000  0.4999999999999999
  0.9589056423485295  0.4589056423485296  0.4999999999999999
  0.2089056423485296  0.2089056423485296  0.9999999999999998
  0.5410943576514704  0.0410943576514704  0.4999999999999999
  0.7910943576514704  0.7910943576514704  0.0000000000000000
