generated by phonopy
   1.0
     5.1244520926339359    0.0000000000000000    0.0000000000000000
     0.0000000000000000    5.9308670110250779    0.0000000000000000
     0.0000000000000000    0.0000000000000000    2.9418564061320338
P Os
   4    2
Direct
  0.3375286066339385  0.8720223832986775  0.5000000000000000
  0.6624713933660615  0.1279776167013225  0.5000000000000000
  0.1624713933660615  0.3720223832986775  0.0000000000000000
  0.8375286066339385  0.6279776167013225  0.0000000000000000
  0.5000000000000000  0.5000000000000000  0.5000000000000000
  0.0000000000000000  0.0000000000000000  0.0000000000000000
