generated by phonopy                    
    1.000000000000000     
     2.2826413982104601    1.3178836257201927    8.2634323102386311
    -2.2826413982104601    1.3178836257201927    8.2634323102386311
     0.0000000000000001   -2.6357672514403854    8.2634323102386311
   K    Sm   Te
     1     1     2
Direct
  0.0000000000000000  0.0000000000000000  0.0000000000000000
  0.5000000000000000  0.5000000000000000  0.5000000000000000
  0.2374914144794289  0.2374914144794289  0.2374914144794289
  0.7625085855205640  0.7625085855205711  0.7625085855205640
