generated by phonopy
   1.0
     4.3863355382517666    0.0000000000000000    0.0000000000000000
     0.0000000000000000    4.3863355382517666    0.0000000000000000
     0.0000000000000000    0.0000000000000000    7.1271609984137978
Na Mg As
   2    2    2
Direct
  0.5000000000000000  0.0000000000000000  0.3661986453064967
  0.0000000000000000  0.5000000000000000  0.6338013546935032
  0.5000000000000000  0.5000000000000000  0.0000000000000000
  0.0000000000000000  0.0000000000000000  0.0000000000000000
  0.5000000000000000  0.0000000000000000  0.7809168295775916
  0.0000000000000000  0.5000000000000000  0.2190831704224082
