generated by phonopy                    
    1.000000000000000     
     2.0674828486123737    1.1936617791912880    8.0705336976630999
    -2.0674828486123733    1.1936617791912880    8.0705336976630999
    -0.0000000000000001   -2.3873235583825760    8.0705336976630999
   Cs   Gd   S 
     1     1     2
Direct
 -0.0000000000000000 -0.0000000000000000 -0.0000000000000000
  0.5000000000000000  0.5000000000000000  0.5000000000000000
  0.7723162189274426  0.7723162189274426  0.7723162189274426
  0.2276837810725574  0.2276837810725574  0.2276837810725574
 
  0.00000000E+00  0.00000000E+00  0.00000000E+00
  0.00000000E+00  0.00000000E+00  0.00000000E+00
  0.00000000E+00  0.00000000E+00  0.00000000E+00
  0.00000000E+00  0.00000000E+00  0.00000000E+00
