generated by phonopy
   1.0
     4.5727236894543202    0.0000000000000000    0.0000000000000000
     0.0000000000000000    4.5727236894543202    0.0000000000000000
     0.0000000000000000    0.0000000000000000    7.8370125534899415
K Mg As
   2    2    2
Direct
  0.0000000000000000  0.4999999999999999  0.3568210995005783
  0.4999999999999999  0.0000000000000000  0.6431789004994215
  0.0000000000000000  0.0000000000000000  0.0000000000000000
  0.4999999999999999  0.4999999999999999  0.0000000000000000
  0.0000000000000000  0.4999999999999999  0.8080664825164656
  0.4999999999999999  0.0000000000000000  0.1919335174835341
