generated by phonopy                    
    1.000000000000000     
     2.3080117040827006    1.3325311786449541    8.2643338300563549
    -2.3080117040827006    1.3325311786449541    8.2643338300563549
     0.0000000000000003   -2.6650623572899086    8.2643338300563549
   K    Nd   Te
     1     1     2
Direct
  0.5000000000000000  0.5000000000000000  0.5000000000000000
  0.0000000000000000  0.0000000000000000  0.0000000000000000
  0.2617525613350864  0.2617525613350864  0.2617525613350864
  0.7382474386649136  0.7382474386649136  0.7382474386649136
 
  0.00000000E+00  0.00000000E+00  0.00000000E+00
  0.00000000E+00  0.00000000E+00  0.00000000E+00
  0.00000000E+00  0.00000000E+00  0.00000000E+00
  0.00000000E+00  0.00000000E+00  0.00000000E+00
