generated by phonopy                    
    1.000000000000000     
     2.1255894592832809    1.2272096465038329    7.9652145749421193
    -2.1255894592832809    1.2272096465038329    7.9652145749421193
    -0.0000000000000001   -2.4544192930076663    7.9652145749421193
   Rb   Tb   Se
     1     1     2
Direct
  0.0000000000000000  0.0000000000000000  0.0000000000000000
  0.5000000000000000  0.5000000000000000  0.5000000000000000
  0.7677531827333866  0.7677531827333866  0.7677531827333866
  0.2322468172666134  0.2322468172666134  0.2322468172666134
