generated by phonopy
   1.0
     1.8965339663749192    1.0949643960138284    9.3564631854279092
    -1.8965339663749194    1.0949643960138284    9.3564631854279092
     0.0000000000000003   -2.1899287920276569    9.3564631854279092
Dy Cl O
   2    2    2
Direct
  0.2176115210080098  0.2176115210080098  0.2176115210080098
  0.7823884789919904  0.7823884789919899  0.7823884789919902
  0.3874221462553727  0.3874221462553725  0.3874221462553726
  0.6125778537446276  0.6125778537446274  0.6125778537446274
  0.1364638660159988  0.1364638660159988  0.1364638660159988
  0.8635361339840014  0.8635361339840011  0.8635361339840011
