generated by phonopy                    
    1.000000000000000     
     1.9814693992907864    1.1440018910715417    7.5115038634579019
    -1.9814693992907866    1.1440018910715417    7.5115038634579019
     0.0000000000000001   -2.2880037821430834    7.5115038634579019
   Tm   Tl   S 
     1     1     2
Direct
  0.0000000000000000  0.0000000000000000  0.0000000000000000
  0.5000000000000000  0.5000000000000000  0.5000000000000000
  0.7318995078286915  0.7318995078286915  0.7318995078286915
  0.2681004921713085  0.2681004921713085  0.2681004921713085
 
  0.00000000E+00  0.00000000E+00  0.00000000E+00
  0.00000000E+00  0.00000000E+00  0.00000000E+00
  0.00000000E+00  0.00000000E+00  0.00000000E+00
  0.00000000E+00  0.00000000E+00  0.00000000E+00
