generated by phonopy
   1.0
     4.4536466248501458    0.0000000000000000    0.0000000000000000
     0.0000000000000000    4.4536466248501458    0.0000000000000000
     0.0000000000000000    0.0000000000000000    7.6143864784332509
K Mg P
   2    2    2
Direct
  0.0000000000000000  0.5000000000000000  0.3592957315019943
  0.5000000000000000  0.0000000000000000  0.6407042684980054
  0.0000000000000000  0.0000000000000000  0.0000000000000000
  0.5000000000000000  0.5000000000000000  0.0000000000000000
  0.0000000000000000  0.5000000000000000  0.8136364705305535
  0.5000000000000000  0.0000000000000000  0.1863635294694462
