generated by phonopy                    
    1.000000000000000     
     1.7101051970918533    0.9873296958835595    6.4557392632146362
    -1.7101051970918530    0.9873296958835595    6.4557392632146362
     0.0000000000000002   -1.9746593917671189    6.4557392632146362
   Rb   Tm   O 
     1     1     2
Direct
  0.0000000000000000  0.0000000000000000  0.0000000000000000
  0.5000000000000000  0.5000000000000000  0.5000000000000000
  0.2249331665063181  0.2249331665063181  0.2249331665063181
  0.7750668334936819  0.7750668334936819  0.7750668334936819
