generated by phonopy                    
    1.000000000000000     
    -0.0000000000000000    3.1447490028011247    3.1447490028011247
     3.1447490028011247   -0.0000000000000000    3.1447490028011247
     3.1447490028011247    3.1447490028011247   -0.0000000000000000
   Er   Ni   Sb
     1     1     1
Direct
  0.5000000000000000  0.5000000000000000  0.5000000000000000
  0.7500000000000000  0.7500000000000000  0.7500000000000000
  0.0000000000000000  0.0000000000000000  0.0000000000000000
 
  0.00000000E+00  0.00000000E+00  0.00000000E+00
  0.00000000E+00  0.00000000E+00  0.00000000E+00
  0.00000000E+00  0.00000000E+00  0.00000000E+00
