generated by phonopy                    
    1.000000000000000     
     1.6106128469145666    0.9298877607263947    6.1078123119730297
    -1.6106128469145664    0.9298877607263947    6.1078123119730297
     0.0000000000000001   -1.8597755214527893    6.1078123119730297
   K    Sc   O 
     1     1     2
Direct
 -0.0000000000000000 -0.0000000000000000 -0.0000000000000000
  0.5000000000000000  0.5000000000000000  0.5000000000000000
  0.7736636561432173  0.7736636561432173  0.7736636561432173
  0.2263363438567827  0.2263363438567827  0.2263363438567827
 
  0.00000000E+00  0.00000000E+00  0.00000000E+00
  0.00000000E+00  0.00000000E+00  0.00000000E+00
  0.00000000E+00  0.00000000E+00  0.00000000E+00
  0.00000000E+00  0.00000000E+00  0.00000000E+00
