generated by phonopy                    
    1.000000000000000     
     1.9467156830213845    1.1239368236280618    7.0609925559098583
    -1.9467156830213841    1.1239368236280618    7.0609925559098583
    -0.0000000000000001   -2.2478736472561236    7.0609925559098583
   Sr   N    Cl
     2     1     1
Direct
  0.7697190351550844  0.7697190351550844  0.7697190351550844
  0.2302809648449156  0.2302809648449156  0.2302809648449156
  0.5000000000000000  0.5000000000000000  0.5000000000000000
  0.0000000000000000  0.0000000000000000  0.0000000000000000
 
  0.00000000E+00  0.00000000E+00  0.00000000E+00
  0.00000000E+00  0.00000000E+00  0.00000000E+00
  0.00000000E+00  0.00000000E+00  0.00000000E+00
  0.00000000E+00  0.00000000E+00  0.00000000E+00
