generated by phonopy
   1.0
     3.9516173955285634    0.0000000000000000    0.0000000000000000
     0.0000000000000000    3.9516173955285634    0.0000000000000000
     0.0000000000000000    0.0000000000000000    6.7544206444487482
Eu Cl F
   2    2    2
Direct
  0.0000000000000000  0.5000000000000000  0.8018793433344418
  0.5000000000000000  0.0000000000000000  0.1981206566655585
  0.0000000000000000  0.5000000000000000  0.3559711969501579
  0.5000000000000000  0.0000000000000000  0.6440288030498422
  0.0000000000000000  0.0000000000000000  0.0000000000000000
  0.5000000000000000  0.5000000000000000  0.0000000000000000
