generated by phonopy                    
    1.000000000000000     
     1.7439207896159055    1.0068531373301273    6.4013209163088982
    -1.7439207896159050    1.0068531373301273    6.4013209163088982
    -0.0000000000000001   -2.0137062746602550    6.4013209163088982
   Rb   Tl   O 
     1     1     2
Direct
  0.5000000000000000  0.5000000000000000  0.5000000000000000
 -0.0000000000000000  0.0000000000000000  0.0000000000000000
  0.7293746527865325  0.7293746527865325  0.7293746527865325
  0.2706253472134676  0.2706253472134676  0.2706253472134676
