generated by phonopy                    
    1.000000000000000     
     2.0424481370416689    1.1792079817268573    7.6584722570165766
    -2.0424481370416689    1.1792079817268573    7.6584722570165766
     0.0000000000000005   -2.3584159634537141    7.6584722570165766
   Rb   Tb   S 
     1     1     2
Direct
  0.0000000000000000  0.0000000000000000  0.0000000000000000
  0.5000000000000000  0.5000000000000000  0.5000000000000000
  0.2310746519181208  0.2310746519181279  0.2310746519181279
  0.7689253480818721  0.7689253480818721  0.7689253480818721
