generated by phonopy
   1.0
     4.0434750103924708    0.0000000000000000    0.0000000000000000
     0.0000000000000000    4.0434750103924708    0.0000000000000000
     0.0000000000000000    0.0000000000000000    6.8595559613562012
Na Zn P
   2    2    2
Direct
  0.0000000000000000  0.5000000000000000  0.6439008749203621
  0.5000000000000000  0.0000000000000000  0.3560991250796378
  0.0000000000000000  0.0000000000000000  0.0000000000000000
  0.5000000000000000  0.5000000000000000  0.0000000000000000
  0.5000000000000000  0.0000000000000000  0.7857736148046609
  0.0000000000000000  0.5000000000000000  0.2142263851953388
