generated by phonopy                    
    1.000000000000000     
     1.8525810491355625    1.0695881674140157    6.9007143020269490
    -1.8525810491355621    1.0695881674140157    6.9007143020269490
    -0.0000000000000000   -2.1391763348280319    6.9007143020269490
   Ca   Br   N 
     2     1     1
Direct
  0.2255223985678114  0.2255223985678114  0.2255223985678114
  0.7744776014321886  0.7744776014321886  0.7744776014321886
  0.0000000000000000  0.0000000000000000  0.0000000000000000
  0.5000000000000000  0.5000000000000000  0.5000000000000000
