generated by phonopy                    
    1.000000000000000     
     1.7061431578175359    0.9850422114419924    6.1544541412619775
    -1.7061431578175359    0.9850422114419924    6.1544541412619775
    -0.0000000000000001   -1.9700844228839849    6.1544541412619775
   K    Er   O 
     1     1     2
Direct
  0.0000000000000000  0.0000000000000000  0.0000000000000000
  0.5000000000000000  0.5000000000000000  0.5000000000000000
  0.7712076653224500  0.7712076653224500  0.7712076653224500
  0.2287923346775500  0.2287923346775500  0.2287923346775500
 
  0.00000000E+00  0.00000000E+00  0.00000000E+00
  0.00000000E+00  0.00000000E+00  0.00000000E+00
  0.00000000E+00  0.00000000E+00  0.00000000E+00
  0.00000000E+00  0.00000000E+00  0.00000000E+00
