generated by phonopy                    
    1.000000000000000     
     2.0051538411092626    1.1576761099310446    7.6480533069815717
    -2.0051538411092626    1.1576761099310446    7.6480533069815717
     0.0000000000000000   -2.3153522198620893    7.6480533069815717
   Rb   Tm   S 
     1     1     2
Direct
 -0.0000000000000000 -0.0000000000000000  0.0000000000000000
  0.5000000000000000  0.5000000000000000  0.5000000000000000
  0.7699059370703587  0.7699059370703587  0.7699059370703587
  0.2300940629296413  0.2300940629296413  0.2300940629296413
 
  0.00000000E+00  0.00000000E+00  0.00000000E+00
  0.00000000E+00  0.00000000E+00  0.00000000E+00
  0.00000000E+00  0.00000000E+00  0.00000000E+00
  0.00000000E+00  0.00000000E+00  0.00000000E+00
