generated by phonopy
   1.0
     4.7942868414084430    0.0000000000000000    0.0000000000000000
     0.0000000000000000    5.7653172666586121    0.0000000000000000
     0.0000000000000000    0.0000000000000000    3.5902981300310173
Fe Se
   2    4
Direct
  0.0000000000000000  0.0000000000000000  0.0000000000000000
  0.5000000000000000  0.5000000000000001  0.5000000000000001
  0.2176220503688383  0.3675830959845854  0.0000000000000000
  0.7823779496311617  0.6324169040154147  0.0000000000000000
  0.7176220503688383  0.1324169040154146  0.5000000000000001
  0.2823779496311617  0.8675830959845856  0.5000000000000001
