generated by phonopy
   1.0
     4.5360350308365538    0.0000000000000000    0.0000000000000000
     0.0000000000000000    4.5360350308365538    0.0000000000000000
     0.0000000000000000    0.0000000000000000    7.7288382332464565
K Ag Se
   2    2    2
Direct
  0.0000000000000000  0.4999999999999999  0.3377819919132248
  0.4999999999999999  0.0000000000000000  0.6622180080867750
  0.0000000000000000  0.0000000000000000  0.0000000000000000
  0.4999999999999999  0.4999999999999999  0.0000000000000000
  0.4999999999999999  0.0000000000000000  0.2166780217500273
  0.0000000000000000  0.4999999999999999  0.7833219782499724
