generated by phonopy                    
    1.000000000000000     
     2.0839116017434987    1.2031469242339927    7.9385967000000646
    -2.0839116017434982    1.2031469242339927    7.9385967000000646
    -0.0000000000000000   -2.4062938484679859    7.9385967000000646
   Ba   Br   N 
     2     1     1
Direct
  0.2286592633333342  0.2286592633333342  0.2286592633333342
  0.7713407366666658  0.7713407366666658  0.7713407366666658
  0.0000000000000000  0.0000000000000000  0.0000000000000000
  0.5000000000000000  0.5000000000000000  0.5000000000000000
