generated by phonopy
   1.0
     4.4232816045827086    0.0000000000000000    0.0000000000000000
     0.0000000000000000    4.4232816045827086    0.0000000000000000
     0.0000000000000000    0.0000000000000000    2.8957533161369025
Ge O
   2    4
Direct
  0.5000000000000000  0.5000000000000000  0.5000000000000000
  0.0000000000000000  0.0000000000000000  0.0000000000000000
  0.6941301123950296  0.6941301123950296  0.0000000000000000
  0.8058698876049704  0.1941301123950296  0.5000000000000000
  0.3058698876049704  0.3058698876049704  0.0000000000000000
  0.1941301123950296  0.8058698876049704  0.5000000000000000
