generated by phonopy
   1.0
    -2.2028396573886950    2.2028396573886946    7.2757930741288162
     2.2028396573886950   -2.2028396573886937    7.2757930741288162
     2.2028396573886950    2.2028396573886937   -7.2757930741288162
Cs Hg O
   2    1    2
Direct
  0.6636395495595444  0.6636395495595445  0.9999999999999999
  0.3363604504404558  0.3363604504404558  0.0000000000000000
  0.0000000000000000  0.0000000000000000  0.0000000000000000
  0.8628648101994898  0.8628648101994900  0.9999999999999998
  0.1371351898005104  0.1371351898005104  0.0000000000000000
