generated by phonopy                    
    1.000000000000000     
     1.7477188801535011    1.0090459659244151    6.1797147991117063
    -1.7477188801535013    1.0090459659244151    6.1797147991117063
     0.0000000000000003   -2.0180919318488302    6.1797147991117063
   K    Gd   O 
     1     1     2
Direct
  0.0000000000000000  0.0000000000000000  0.0000000000000000
  0.5000000000000000  0.5000000000000000  0.5000000000000000
  0.7700643004760011  0.7700643004760011  0.7700643004760011
  0.2299356995239989  0.2299356995239989  0.2299356995239989
 
  0.00000000E+00  0.00000000E+00  0.00000000E+00
  0.00000000E+00  0.00000000E+00  0.00000000E+00
  0.00000000E+00  0.00000000E+00  0.00000000E+00
  0.00000000E+00  0.00000000E+00  0.00000000E+00
