generated by phonopy
   1.0
     4.5133562569738590    0.0000000000000000    0.0000000000000000
    -2.2566781284869295    3.9086811748688080    0.0000000000000000
     0.0000000000000000    0.0000000000000000    7.7814717852580575
Ba Mg As
   1    2    2
Direct
  0.0000000000000000  0.0000000000000000  0.0000000000000000
  0.6666666666666666  0.3333333333333334  0.3771113737838334
  0.3333333333333334  0.6666666666666669  0.6228886262161666
  0.6666666666666666  0.3333333333333334  0.7270058509459218
  0.3333333333333334  0.6666666666666669  0.2729941490540782
