generated by phonopy                    
    1.000000000000000     
     2.0977757457021942    1.2111513914806296    7.0497470454232287
    -2.0977757457021942    1.2111513914806296    7.0497470454232287
    -0.0000000000000001   -2.4223027829612591    7.0497470454232287
   Na   Bi   Se
     1     1     2
Direct
  0.5000000000000000  0.5000000000000000  0.5000000000000000
 -0.0000000000000000  0.0000000000000000  0.0000000000000000
  0.7473887473510891  0.7473887473510891  0.7473887473510891
  0.2526112526489109  0.2526112526489109  0.2526112526489109
