generated by phonopy                    
    1.000000000000000     
     0.0000000000000000    3.4768461994055997    3.4768461994055997
     3.4768461994055997    0.0000000000000000    3.4768461994055997
     3.4768461994055997    3.4768461994055997   -0.0000000000000000
   Rb   Br
     1     1
Direct
  0.0000000000000000  0.0000000000000000  0.0000000000000000
  0.5000000000000000  0.5000000000000000  0.5000000000000000
 
  0.00000000E+00  0.00000000E+00  0.00000000E+00
  0.00000000E+00  0.00000000E+00  0.00000000E+00
