generated by phonopy                    
    1.000000000000000     
     0.0000000000000000    3.1722916384190505    3.1722916384190505
     3.1722916384190505   -0.0000000000000000    3.1722916384190505
     3.1722916384190505    3.1722916384190505   -0.0000000000000000
   Yb   Te
     1     1
Direct
  0.5000000000000000  0.5000000000000000  0.5000000000000000
  0.0000000000000000  0.0000000000000000  0.0000000000000000
 
  0.00000000E+00  0.00000000E+00  0.00000000E+00
  0.00000000E+00  0.00000000E+00  0.00000000E+00
