generated by phonopy                    
    1.000000000000000     
     4.2586169977936397    0.0000000000000000    0.0000000000000000
    -2.1293084988968198    3.6880705050775107    0.0000000000000000
     0.0000000000000000    0.0000000000000000    4.9591458970136806
   Sr   Al   Ge   H 
     1     1     1     1
Direct
  0.3333333333333357  0.6666666666666643  0.0031752646340308
  0.0000000000000000  0.0000000000000000  0.4589742694252959
  0.6666666666666643  0.3333333333333357  0.5619092320921827
 -0.0000000000000000  0.0000000000000000  0.1051392338485001
 
  0.00000000E+00  0.00000000E+00  0.00000000E+00
  0.00000000E+00  0.00000000E+00  0.00000000E+00
  0.00000000E+00  0.00000000E+00  0.00000000E+00
  0.00000000E+00  0.00000000E+00  0.00000000E+00
