generated by phonopy                    
    1.000000000000000     
     1.8228231408594944    1.0524074310603089    4.9506629327669343
    -1.8228231408594950    1.0524074310603089    4.9506629327669343
     0.0000000000000003   -2.1048148621206177    4.9506629327669343
   Ca   C    N 
     1     1     2
Direct
  0.0000000000000000  0.0000000000000000  0.0000000000000000
  0.5000000000000000  0.5000000000000000  0.5000000000000000
  0.4168449343714045  0.4168449343714045  0.4168449343714045
  0.5831550656285955  0.5831550656285955  0.5831550656285955
 
  0.00000000E+00  0.00000000E+00  0.00000000E+00
  0.00000000E+00  0.00000000E+00  0.00000000E+00
  0.00000000E+00  0.00000000E+00  0.00000000E+00
  0.00000000E+00  0.00000000E+00  0.00000000E+00
