generated by phonopy                    
    1.000000000000000     
     1.6923467129181604    0.9770768302654785    6.4372973410667225
    -1.6923467129181606    0.9770768302654785    6.4372973410667225
     0.0000000000000002   -1.9541536605309571    6.4372973410667225
   Rb   Lu   O 
     1     1     2
Direct
  0.0000000000000000  0.0000000000000000  0.0000000000000000
  0.5000000000000000  0.5000000000000000  0.5000000000000000
  0.7755112219251856  0.7755112219251856  0.7755112219251856
  0.2244887780748215  0.2244887780748215  0.2244887780748215
