generated by phonopy
   1.0
     4.5027702241192031    0.0000000000000000    0.0000000000000000
     0.0000000000000000    4.5027702241192031    0.0000000000000000
     0.0000000000000000    0.0000000000000000    7.4513831513698996
Ba Br F
   2    2    2
Direct
  0.0000000000000000  0.5000000000000000  0.8055427927568672
  0.5000000000000000  0.0000000000000000  0.1944572072431328
  0.5000000000000000  0.0000000000000000  0.6470312306762764
  0.0000000000000000  0.5000000000000000  0.3529687693237236
  0.5000000000000000  0.5000000000000000  0.0000000000000000
  0.0000000000000000  0.0000000000000000  0.0000000000000000
