generated by phonopy                    
    1.000000000000000     
     3.7379390256931933    0.0000000000000000    0.0000000000000000
    -1.8689695128465964    3.2371501540475580    0.0000000000000000
     0.0000000000000000    0.0000000000000000    5.9950471900000011
   Sc   Cu   S 
     1     1     2
Direct
  0.0000000000000000 -0.0000000000000000  0.0026901746550855
  0.3333333333333357  0.6666666666666643  0.4001087485216894
  0.6666666666666643  0.3333333333333357  0.2615379351289714
  0.3333333333333357  0.6666666666666643  0.7784631416942450
 
  0.00000000E+00  0.00000000E+00  0.00000000E+00
  0.00000000E+00  0.00000000E+00  0.00000000E+00
  0.00000000E+00  0.00000000E+00  0.00000000E+00
  0.00000000E+00  0.00000000E+00  0.00000000E+00
