generated by phonopy                    
    1.000000000000000     
     4.5813838050624698    0.0000000000000000   -0.0000000000000000
    -2.2906919025312353    3.9675947596707135    0.0000000000000000
    -0.0000000000000000    0.0000000000000000    7.3679217335680844
   Li   I 
     2     2
Direct
  0.3333333333333357  0.6666666666666643  0.9974710643177573
  0.6666666666666643  0.3333333333333357  0.4974710643177573
  0.3333333333333357  0.6666666666666643  0.3775289356822427
  0.6666666666666643  0.3333333333333357  0.8775289356822427
