generated by phonopy                    
    1.000000000000000     
     0.0000000000000000    3.4836841259253637    3.4836841259253637
     3.4836841259253637    0.0000000000000000    3.4836841259253637
     3.4836841259253637    3.4836841259253637   -0.0000000000000000
   Sr   Cl
     1     2
Direct
  0.0000000000000000  0.0000000000000000  0.0000000000000000
  0.7500000000000000  0.7500000000000000  0.7500000000000000
  0.2500000000000000  0.2500000000000000  0.2500000000000000
 
  0.00000000E+00  0.00000000E+00  0.00000000E+00
  0.00000000E+00  0.00000000E+00  0.00000000E+00
  0.00000000E+00  0.00000000E+00  0.00000000E+00
