generated by phonopy                    
    1.000000000000000     
     0.0000000000000000    3.1066180077846077    3.1066180077846077
     3.1066180077846077   -0.0000000000000000    3.1066180077846077
     3.1066180077846077    3.1066180077846077   -0.0000000000000000
   Zr   Co   Bi
     1     1     1
Direct
  0.0000000000000000  0.0000000000000000  0.0000000000000000
  0.2500000000000000  0.2500000000000000  0.2500000000000000
  0.5000000000000000  0.5000000000000000  0.5000000000000000
 
  0.00000000E+00  0.00000000E+00  0.00000000E+00
  0.00000000E+00  0.00000000E+00  0.00000000E+00
  0.00000000E+00  0.00000000E+00  0.00000000E+00
