generated by phonopy                    
    1.000000000000000     
     3.2393364722889229    0.0000000000000000    0.0000000000000000
    -1.6196682361444614    2.8053476764076732    0.0000000000000000
     0.0000000000000000    0.0000000000000000    5.2793461099999996
   Hf   Zn   N 
     1     1     2
Direct
  0.0000000000000000  0.0000000000000000  0.7920740741862394
  0.3333333333333357  0.6666666666666643  0.3435434636697592
  0.3333333333333357  0.6666666666666643  0.9775345170141121
  0.6666666666666643  0.3333333333333357  0.5395469451298877
 
  0.00000000E+00  0.00000000E+00  0.00000000E+00
  0.00000000E+00  0.00000000E+00  0.00000000E+00
  0.00000000E+00  0.00000000E+00  0.00000000E+00
  0.00000000E+00  0.00000000E+00  0.00000000E+00
