generated by phonopy
   1.0
     4.2038323762850380    0.0000000000000000    0.0000000000000000
    -2.1019161881425190    3.6406256311143452    0.0000000000000000
     0.0000000000000000    0.0000000000000000    8.1344926983195620
La Se F
   2    2    2
Direct
  0.3333333333333333  0.6666666666666666  0.2500000000000000
  0.6666666666666666  0.3333333333333334  0.7500000000000000
  0.0000000000000000  0.0000000000000000  0.5000000000000000
  0.0000000000000000  0.0000000000000000  0.0000000000000000
  0.6666666666666665  0.3333333333333333  0.2500000000000000
  0.3333333333333334  0.6666666666666667  0.7500000000000000
