generated by phonopy                    
    1.000000000000000     
     1.7660698055557800    1.0196408776452999    4.8798917434227160
    -1.7660698055557804    1.0196408776452999    4.8798917434227160
     0.0000000000000001   -2.0392817552905997    4.8798917434227160
   Cd   C    N 
     1     1     2
Direct
  0.0000000000000000  0.0000000000000000  0.0000000000000000
  0.5000000000000000  0.5000000000000000  0.5000000000000000
  0.5843630074278963  0.5843630074278963  0.5843630074278963
  0.4156369925721037  0.4156369925721037  0.4156369925721037
