generated by phonopy                    
    1.000000000000000     
     2.0661315992831777    1.1928816350273346    7.6479414800000303
    -2.0661315992831772    1.1928816350273346    7.6479414800000303
    -0.0000000000000000   -2.3857632700546696    7.6479414800000303
   Ba   N    Cl
     2     1     1
Direct
  0.2314558200000008  0.2314558200000008  0.2314558200000008
  0.7685441799999992  0.7685441799999992  0.7685441799999992
  0.5000000000000000  0.5000000000000000  0.5000000000000000
  0.0000000000000000  0.0000000000000000  0.0000000000000000
