generated by phonopy                    
    1.000000000000000     
     2.0285316317984496    1.1711732836785056    7.3235881470268342
    -2.0285316317984496    1.1711732836785056    7.3235881470268342
    -0.0000000000000000   -2.3423465673570107    7.3235881470268342
   K    Tb   S 
     1     1     2
Direct
  0.5000000000000000  0.5000000000000000  0.5000000000000000
  0.0000000000000000  0.0000000000000000  0.0000000000000000
  0.7344978968388105  0.7344978968388105  0.7344978968388105
  0.2655021031611895  0.2655021031611895  0.2655021031611895
