generated by phonopy                    
    1.000000000000000     
     1.7248431681919556    0.9958386674655125    6.1658870114248163
    -1.7248431681919554    0.9958386674655125    6.1658870114248163
     0.0000000000000001   -1.9916773349310251    6.1658870114248163
   K    Dy   O 
     1     1     2
Direct
  0.0000000000000000  0.0000000000000000  0.0000000000000000
  0.5000000000000000  0.5000000000000000  0.5000000000000000
  0.2293651929665046  0.2293651929665046  0.2293651929665046
  0.7706348070334954  0.7706348070334954  0.7706348070334954
 
  0.00000000E+00  0.00000000E+00  0.00000000E+00
  0.00000000E+00  0.00000000E+00  0.00000000E+00
  0.00000000E+00  0.00000000E+00  0.00000000E+00
  0.00000000E+00  0.00000000E+00  0.00000000E+00
