generated by phonopy                    
    1.000000000000000     
     1.9880550380682964    1.1478041113925226    6.3208690217935466
    -1.9880550380682964    1.1478041113925226    6.3208690217935466
    -0.0000000000000001   -2.2956082227850452    6.3208690217935466
   Li   Bi   S 
     1     1     2
Direct
  0.5000000000000000  0.5000000000000000  0.5000000000000000
  0.0000000000000000  0.0000000000000000  0.0000000000000000
  0.2453718762834924  0.2453718762834924  0.2453718762834924
  0.7546281237165076  0.7546281237165076  0.7546281237165076
 
  0.00000000E+00  0.00000000E+00  0.00000000E+00
  0.00000000E+00  0.00000000E+00  0.00000000E+00
  0.00000000E+00  0.00000000E+00  0.00000000E+00
  0.00000000E+00  0.00000000E+00  0.00000000E+00
