generated by phonopy                    
    1.000000000000000     
     2.1065869892261513    1.2162385653010817    7.3416800923707166
    -2.1065869892261513    1.2162385653010817    7.3416800923707166
    -0.0000000000000001   -2.4324771306021633    7.3416800923707166
   K    Pr   S 
     1     1     2
Direct
  0.5000000000000000  0.5000000000000000  0.5000000000000000
  0.0000000000000000  0.0000000000000000  0.0000000000000000
  0.2632256396583159  0.2632256396583159  0.2632256396583159
  0.7367743603416841  0.7367743603416841  0.7367743603416841
