generated by phonopy                    
    1.000000000000000     
     3.2464533045016135   -0.0000000000000000    0.0000000000000000
    -1.6232266522508068    2.8115110338983347    0.0000000000000000
     0.0000000000000000   -0.0000000000000000    5.2370253320532152
   Zn   O 
     2     2
Direct
  0.6666666666666643  0.3333333333333357  0.5005861674388470
  0.3333333333333357  0.6666666666666643  0.0005861674388470
  0.6666666666666643  0.3333333333333357  0.8797238325611545
  0.3333333333333357  0.6666666666666643  0.3797238325611545
 
  0.00000000E+00  0.00000000E+00  0.00000000E+00
  0.00000000E+00  0.00000000E+00  0.00000000E+00
  0.00000000E+00  0.00000000E+00  0.00000000E+00
  0.00000000E+00  0.00000000E+00  0.00000000E+00
