generated by phonopy
   1.0
     5.4674745157263871    0.0000000000000000    0.0000000000000000
     0.0000000000000000    6.2407028878251074    0.0000000000000000
     0.0000000000000000    0.0000000000000000    3.0446098633333469
As Os
   4    2
Direct
  0.3292123856255460  0.8651561030615442  0.5000000000000001
  0.6707876143744540  0.1348438969384560  0.5000000000000001
  0.1707876143744540  0.3651561030615441  0.0000000000000000
  0.8292123856255460  0.6348438969384561  0.0000000000000000
  0.5000000000000000  0.5000000000000001  0.5000000000000001
  0.0000000000000000  0.0000000000000000  0.0000000000000000
