generated by phonopy
   1.0
     4.0286338107090183    0.0000000000000000    0.0000000000000000
     0.0000000000000000    4.0286338107090183    0.0000000000000000
     0.0000000000000000    0.0000000000000000    7.0602673777139602
Th Se O
   2    2    2
Direct
  0.5000000000000000  0.0000000000000000  0.1885484177259682
  0.0000000000000000  0.5000000000000000  0.8114515822740315
  0.5000000000000000  0.0000000000000000  0.6355762176174620
  0.0000000000000000  0.5000000000000000  0.3644237823825379
  0.0000000000000000  0.0000000000000000  0.0000000000000000
  0.5000000000000000  0.5000000000000000  0.0000000000000000
