generated by phonopy                    
    1.000000000000000     
    -0.0000000000000000    2.9259750170850212    2.9259750170850212
     2.9259750170850212   -0.0000000000000000    2.9259750170850212
     2.9259750170850212    2.9259750170850212    0.0000000000000000
   Pb   F 
     1     2
Direct
  0.0000000000000000  0.0000000000000000  0.0000000000000000
  0.7500000000000000  0.7500000000000000  0.7500000000000000
  0.2500000000000000  0.2500000000000000  0.2500000000000000
 
  0.00000000E+00  0.00000000E+00  0.00000000E+00
  0.00000000E+00  0.00000000E+00  0.00000000E+00
  0.00000000E+00  0.00000000E+00  0.00000000E+00
