generated by phonopy
   1.0
    -1.9233240459759202    1.9233240459759202    6.4173062603270647
     1.9233240459759202   -1.9233240459759211    6.4173062603270647
     1.9233240459759202    1.9233240459759211   -6.4173062603270647
Sr Zn N
   2    1    2
Direct
  0.6583890513442655  0.6583890513442654  0.0000000000000001
  0.3416109486557346  0.3416109486557346  0.0000000000000000
  0.0000000000000000  0.0000000000000000  0.0000000000000000
  0.8565733680733525  0.8565733680733523  0.0000000000000002
  0.1434266319266477  0.1434266319266477  0.0000000000000000
