generated by phonopy                    
    1.000000000000000     
     0.0000000000000000    2.8652390540971302    2.8652390540971302
     2.8652390540971302    0.0000000000000000    2.8652390540971302
     2.8652390540971302    2.8652390540971302   -0.0000000000000000
   Al   As
     1     1
Direct
  0.0000000000000000  0.0000000000000000  0.0000000000000000
  0.7500000000000000  0.7500000000000000  0.7500000000000000
 
  0.00000000E+00  0.00000000E+00  0.00000000E+00
  0.00000000E+00  0.00000000E+00  0.00000000E+00
