generated by phonopy                    
    1.000000000000000     
     1.9815526598283562    1.1440499615653204    7.6974470931464509
    -1.9815526598283564    1.1440499615653204    7.6974470931464509
    -0.0000000000000000   -2.2880999231306407    7.6974470931464509
   Sc   Tl   Se
     1     1     2
Direct
  0.0000000000000000  0.0000000000000000  0.0000000000000000
  0.5000000000000000  0.5000000000000000  0.5000000000000000
  0.7318452774703701  0.7318452774703701  0.7318452774703701
  0.2681547225296299  0.2681547225296299  0.2681547225296299
 
  0.00000000E+00  0.00000000E+00  0.00000000E+00
  0.00000000E+00  0.00000000E+00  0.00000000E+00
  0.00000000E+00  0.00000000E+00  0.00000000E+00
  0.00000000E+00  0.00000000E+00  0.00000000E+00
