generated by phonopy                    
    1.000000000000000     
     1.9750073848040952    1.1402710452681426    7.3078955063593103
    -1.9750073848040950    1.1402710452681426    7.3078955063593103
    -0.0000000000000001   -2.2805420905362852    7.3078955063593103
   K    Lu   S 
     1     1     2
Direct
  0.0000000000000000  0.0000000000000000  0.0000000000000000
  0.5000000000000000  0.5000000000000000  0.5000000000000000
  0.7669968089947403  0.7669968089947403  0.7669968089947403
  0.2330031910052597  0.2330031910052597  0.2330031910052597
 
  0.00000000E+00  0.00000000E+00  0.00000000E+00
  0.00000000E+00  0.00000000E+00  0.00000000E+00
  0.00000000E+00  0.00000000E+00  0.00000000E+00
  0.00000000E+00  0.00000000E+00  0.00000000E+00
