generated by phonopy                    
    1.000000000000000     
    -0.0000000000000000    3.3026822139746708    3.3026822139746708
     3.3026822139746708   -0.0000000000000000    3.3026822139746708
     3.3026822139746708    3.3026822139746708   -0.0000000000000000
   Tb   Sb   Pt
     1     1     1
Direct
  0.5000000000000000  0.5000000000000000  0.5000000000000000
  0.0000000000000000  0.0000000000000000  0.0000000000000000
  0.7500000000000000  0.7500000000000000  0.7500000000000000
 
  0.00000000E+00  0.00000000E+00  0.00000000E+00
  0.00000000E+00  0.00000000E+00  0.00000000E+00
  0.00000000E+00  0.00000000E+00  0.00000000E+00
