generated by phonopy
   1.0
     4.6491353905053723   -2.4011154532327978    0.0000000000000000
     4.6491353905053723    2.4011154532327978    0.0000000000000000
    -4.2505841500340606    0.0000000000000000    8.0119962869919856
Ba S
   2    4
Direct
  0.1419571627907246  0.8580428372092754  0.2499999999999999
  0.8580428372092755  0.1419571627907242  0.7499999999999997
  0.4836870226532852  0.1947605839016897  0.9788769649246656
  0.8052394160983098  0.5163129773467147  0.5211230350753338
  0.1947605839016902  0.4836870226532850  0.4788769649246658
  0.5163129773467148  0.8052394160983098  0.0211230350753340
