generated by phonopy
   1.0
     3.7806592764066842    0.0000000000000000    0.0000000000000000
     0.0000000000000000    3.7806592764066842    0.0000000000000000
     0.0000000000000000    0.0000000000000000    3.7806592764066842
H N Cl
   4    1    1
Direct
  0.1593554417148439  0.1593554417148439  0.8406445582851561
  0.1593554417148439  0.8406445582851561  0.1593554417148439
  0.8406445582851561  0.1593554417148439  0.1593554417148439
  0.8406445582851561  0.8406445582851561  0.8406445582851561
  0.0000000000000000  0.0000000000000000  0.0000000000000000
  0.5000000000000000  0.5000000000000000  0.5000000000000000
