generated by phonopy                    
    1.000000000000000     
     1.4244751418760511    0.8224211066160685    4.6523178563466718
    -1.4244751418760511    0.8224211066160685    4.6523178563466718
    -0.0000000000000000   -1.6448422132321370    4.6523178563466718
   Li   Co   O 
     1     1     2
Direct
  0.0000000000000000  0.0000000000000000  0.0000000000000000
  0.5000000000000000  0.5000000000000000  0.5000000000000000
  0.2393281283613078  0.2393281283613078  0.2393281283613078
  0.7606718716386922  0.7606718716386922  0.7606718716386922
