generated by phonopy                    
    1.000000000000000     
     2.0576737223142691    1.1879984774825620    7.6577879098578361
    -2.0576737223142691    1.1879984774825620    7.6577879098578361
    -0.0000000000000001   -2.3759969549651241    7.6577879098578361
   Rb   Gd   S 
     1     1     2
Direct
  0.0000000000000000  0.0000000000000000  0.0000000000000000
  0.5000000000000000  0.5000000000000000  0.5000000000000000
  0.7686962399999970  0.7686962399999970  0.7686962399999970
  0.2313037600000030  0.2313037600000030  0.2313037600000030
 
  0.00000000E+00  0.00000000E+00  0.00000000E+00
  0.00000000E+00  0.00000000E+00  0.00000000E+00
  0.00000000E+00  0.00000000E+00  0.00000000E+00
  0.00000000E+00  0.00000000E+00  0.00000000E+00
