generated by phonopy                    
    1.000000000000000     
     2.0284964610547278    1.1711529778401497    8.0302245485186354
    -2.0284964610547278    1.1711529778401497    8.0302245485186354
     0.0000000000000002   -2.3423059556802994    8.0302245485186354
   Cs   Er   S 
     1     1     2
Direct
  0.0000000000000000  0.0000000000000000  0.0000000000000000
  0.5000000000000000  0.5000000000000000  0.5000000000000000
  0.2268693612573713  0.2268693612573713  0.2268693612573713
  0.7731306387426287  0.7731306387426287  0.7731306387426287
 
  0.00000000E+00  0.00000000E+00  0.00000000E+00
  0.00000000E+00  0.00000000E+00  0.00000000E+00
  0.00000000E+00  0.00000000E+00  0.00000000E+00
  0.00000000E+00  0.00000000E+00  0.00000000E+00
