generated by phonopy
   1.0
     1.8641825787970596    1.0762863136870928    6.1900911636060840
    -1.8641825787970596    1.0762863136870928    6.1900911636060840
     0.0000000000000001   -2.1525726273741861    6.1900911636060840
Er O F
   2    2    2
Direct
  0.7414810646332411  0.7414810646332413  0.7414810646332411
  0.2585189353667588  0.2585189353667588  0.2585189353667588
  0.6212909780527268  0.6212909780527269  0.6212909780527267
  0.3787090219472731  0.3787090219472734  0.3787090219472730
  0.8695303535143613  0.8695303535143614  0.8695303535143613
  0.1304696464856387  0.1304696464856387  0.1304696464856387
