generated by phonopy                    
    1.000000000000000     
     2.2115684012636598    1.2768496118008446    8.1701672966298151
    -2.2115684012636598    1.2768496118008446    8.1701672966298151
    -0.0000000000000001   -2.5536992236016891    8.1701672966298151
   Ho   Tl   Te
     1     1     2
Direct
  0.0000000000000000  0.0000000000000000  0.0000000000000000
  0.5000000000000000  0.5000000000000000  0.5000000000000000
  0.7376239363888004  0.7376239363888004  0.7376239363888004
  0.2623760636111996  0.2623760636111996  0.2623760636111996
