generated by phonopy                    
    1.000000000000000     
     2.0861577278934296    1.2044437257712897    7.4772354208644751
    -2.0861577278934296    1.2044437257712897    7.4772354208644751
    -0.0000000000000001   -2.4088874515425789    7.4772354208644751
   Nd   Tl   S 
     1     1     2
Direct
  0.0000000000000000  0.0000000000000000  0.0000000000000000
  0.5000000000000000  0.5000000000000000  0.5000000000000000
  0.7350149399999992  0.7350149399999992  0.7350149399999992
  0.2649850600000008  0.2649850600000008  0.2649850600000008
 
  0.00000000E+00  0.00000000E+00  0.00000000E+00
  0.00000000E+00  0.00000000E+00  0.00000000E+00
  0.00000000E+00  0.00000000E+00  0.00000000E+00
  0.00000000E+00  0.00000000E+00  0.00000000E+00
