generated by phonopy                    
    1.000000000000000     
    -2.5979424072497825    3.6660492733665331    4.4896553054724277
     2.5979424072497825   -3.6660492733665331    4.4896553054724277
     2.5979424072497825    3.6660492733665331   -4.4896553054724277
   Cs   S 
     2     2
Direct
  0.7684203278646393  0.2684203278646393  0.5000000000000000
  0.2315796721353607  0.7315796721353607  0.5000000000000000
  0.1446596599716585  0.0000000000000000  0.1446596599716585
  0.8553403400283415  0.0000000000000000  0.8553403400283415
