generated by phonopy
   1.0
     4.5485723755264669    0.0000000000000000    0.0000000000000000
     0.0000000000000000    4.5485723755264669    0.0000000000000000
     0.0000000000000000    0.0000000000000000    7.4242102648178996
Ba H Br
   2    2    2
Direct
  0.5000000000000000  0.0000000000000000  0.8061020195910942
  0.0000000000000000  0.5000000000000000  0.1938979804089058
  0.5000000000000000  0.5000000000000000  0.0000000000000000
  0.0000000000000000  0.0000000000000000  0.0000000000000000
  0.0000000000000000  0.5000000000000000  0.6563320677920572
  0.5000000000000000  0.0000000000000000  0.3436679322079428
