generated by phonopy
   1.0
     3.3467569134491253   -2.0035460687413291    0.0000000000000000
     3.3467569134491253    2.0035460687413291    0.0000000000000000
    -0.9048784977756458    0.0000000000000000    6.4193626092731684
Nd O
   2    4
Direct
  0.8018976095803865  0.8018976095803865  0.7688491427550730
  0.1981023904196135  0.1981023904196135  0.2311508572449270
  0.8475252542888612  0.8475252542888612  0.1416423202112682
  0.1524747457111388  0.1524747457111388  0.8583576797887318
  0.5783019748151865  0.5783019748151865  0.4276309181240876
  0.4216980251848135  0.4216980251848135  0.5723690818759124
