generated by phonopy
   1.0
     4.0303466612901024    0.0000000000000000    0.0000000000000000
    -2.0151733306450512    3.4903825947350251    0.0000000000000000
     0.0000000000000000    0.0000000000000000    6.8111976732798638
Ca Zn P
   1    2    2
Direct
  0.0000000000000000  0.0000000000000000  0.0000000000000000
  0.3333333333333333  0.6666666666666666  0.6335008363258580
  0.6666666666666667  0.3333333333333334  0.3664991636741419
  0.6666666666666666  0.3333333333333333  0.7387547445700092
  0.3333333333333334  0.6666666666666667  0.2612452554299906
