generated by phonopy                    
    1.000000000000000     
     0.0000000000000000    3.5210311963897838    3.5210311963897838
     3.5210311963897838    0.0000000000000000    3.5210311963897838
     3.5210311963897838    3.5210311963897838    0.0000000000000000
   Tl   I 
     1     1
Direct
  0.0000000000000000  0.0000000000000000  0.0000000000000000
  0.5000000000000000  0.5000000000000000  0.5000000000000000
 
  0.00000000E+00  0.00000000E+00  0.00000000E+00
  0.00000000E+00  0.00000000E+00  0.00000000E+00
