generated by phonopy
   1.0
     4.3004801028993489    0.0000000000000000    0.0000000000000000
    -2.1502400514496744    3.7243250175803526    0.0000000000000000
     0.0000000000000000    0.0000000000000000    7.0188002754640735
Ca Cd P
   1    2    2
Direct
  0.0000000000000000  0.0000000000000000  0.0000000000000000
  0.3333333333333333  0.6666666666666665  0.6383813927488758
  0.6666666666666666  0.3333333333333333  0.3616186072511242
  0.6666666666666665  0.3333333333333333  0.7620315222107051
  0.3333333333333333  0.6666666666666666  0.2379684777892949
