generated by phonopy                    
    1.000000000000000     
     2.1278278273935145    1.2285019689348211    7.7298119853344565
    -2.1278278273935141    1.2285019689348211    7.7298119853344565
     0.0000000000000001   -2.4570039378696422    7.7298119853344565
   Sm   Tl   Se
     1     1     2
Direct
  0.0000000000000000  0.0000000000000000  0.0000000000000000
  0.5000000000000000  0.5000000000000000  0.5000000000000000
  0.7365837942212394  0.7365837942212394  0.7365837942212394
  0.2634162057787606  0.2634162057787606  0.2634162057787606
 
  0.00000000E+00  0.00000000E+00  0.00000000E+00
  0.00000000E+00  0.00000000E+00  0.00000000E+00
  0.00000000E+00  0.00000000E+00  0.00000000E+00
  0.00000000E+00  0.00000000E+00  0.00000000E+00
