generated by phonopy
   1.0
     3.9377367084277162    0.0000000000000000    0.0000000000000000
     0.0000000000000000    3.9377367084277162    0.0000000000000000
     0.0000000000000000    0.0000000000000000    6.6849519147291740
Eu H Cl
   2    2    2
Direct
  0.0000000000000000  0.5000000000000001  0.7975149847212251
  0.5000000000000001  0.0000000000000000  0.2024850152787749
  0.0000000000000000  0.0000000000000000  0.0000000000000000
  0.5000000000000001  0.5000000000000001  0.0000000000000000
  0.0000000000000000  0.5000000000000001  0.3473764954558689
  0.5000000000000001  0.0000000000000000  0.6526235045441311
