generated by phonopy
   1.0
     5.3104346162907197    0.0000000000000000    0.0000000000000000
     0.0000000000000000    6.4247865077193245    0.0000000000000000
     0.0000000000000000    0.0000000000000000    4.0375103157902057
Te Ru
   4    2
Direct
  0.2210448917360068  0.3663180014189962  0.0000000000000000
  0.7789551082639932  0.6336819985810038  0.0000000000000000
  0.7210448917360068  0.1336819985810038  0.5000000000000000
  0.2789551082639932  0.8663180014189962  0.5000000000000000
  0.0000000000000000  0.0000000000000000  0.0000000000000000
  0.5000000000000000  0.5000000000000000  0.5000000000000000
