generated by phonopy
   1.0
     1.8741281439297819    1.0820283883937130    6.2255575338736246
    -1.8741281439297819    1.0820283883937130    6.2255575338736246
     0.0000000000000002   -2.1640567767874264    6.2255575338736246
Ho O F
   2    2    2
Direct
  0.2585127010645465  0.2585127010645465  0.2585127010645465
  0.7414872989354534  0.7414872989354535  0.7414872989354534
  0.3786178296103700  0.3786178296103701  0.3786178296103698
  0.6213821703896301  0.6213821703896303  0.6213821703896298
  0.1303649658350566  0.1303649658350566  0.1303649658350566
  0.8696350341649434  0.8696350341649435  0.8696350341649434
