generated by phonopy                    
    1.000000000000000     
     2.0103645667902965    1.1606845238056638    7.5043512880483751
    -2.0103645667902970    1.1606845238056638    7.5043512880483751
     0.0000000000000007   -2.3213690476113276    7.5043512880483751
   Dy   Tl   S 
     1     1     2
Direct
  0.0000000000000000  0.0000000000000000  0.0000000000000000
  0.5000000000000000  0.5000000000000000  0.5000000000000000
  0.2672535493163437  0.2672535493163437  0.2672535493163437
  0.7327464506836563  0.7327464506836563  0.7327464506836563
