generated by phonopy                    
    1.000000000000000     
     2.2192517293939127    1.2812855833651182    8.1671075331302507
    -2.2192517293939131    1.2812855833651182    8.1671075331302507
     0.0000000000000001   -2.5625711667302364    8.1671075331302507
   Dy   Tl   Te
     1     1     2
Direct
  0.0000000000000000  0.0000000000000000  0.0000000000000000
  0.5000000000000000  0.5000000000000000  0.5000000000000000
  0.7378496058880799  0.7378496058880799  0.7378496058880799
  0.2621503941119201  0.2621503941119201  0.2621503941119201
