generated by phonopy                    
    1.000000000000000     
     4.1688380995109444    0.0000000000000000    0.0000000000000000
    -2.0844190497554722    3.6103196984409180    0.0000000000000000
     0.0000000000000000    0.0000000000000000    6.7796174100000002
   Cd   S 
     2     2
Direct
  0.6666666666666643  0.3333333333333357  0.5002242857082919
  0.3333333333333357  0.6666666666666643  0.0002242857082919
  0.6666666666666643  0.3333333333333357  0.8767757142917034
  0.3333333333333357  0.6666666666666643  0.3767757142917034
 
  0.00000000E+00  0.00000000E+00  0.00000000E+00
  0.00000000E+00  0.00000000E+00  0.00000000E+00
  0.00000000E+00  0.00000000E+00  0.00000000E+00
  0.00000000E+00  0.00000000E+00  0.00000000E+00
