generated by phonopy
   1.0
     4.4404691963200333    0.0000000000000000    0.0000000000000000
     0.0000000000000000    4.4404691963200333    0.0000000000000000
     0.0000000000000000    0.0000000000000000    4.4404691963200333
Cs Cd F
   1    1    3
Direct
  0.0000000000000000  0.0000000000000000  0.0000000000000000
  0.5000000000000000  0.5000000000000000  0.5000000000000000
  0.0000000000000000  0.5000000000000000  0.5000000000000000
  0.5000000000000000  0.0000000000000000  0.5000000000000000
  0.5000000000000000  0.5000000000000000  0.0000000000000000
