generated by phonopy
   1.0
     1.8846365019170535    1.0880953917064056    6.2582836413140610
    -1.8846365019170537    1.0880953917064056    6.2582836413140610
     0.0000000000000000   -2.1761907834128111    6.2582836413140610
Dy O F
   2    2    2
Direct
  0.2584363615311034  0.2584363615311034  0.2584363615311034
  0.7415636384688966  0.7415636384688966  0.7415636384688966
  0.3785851455974528  0.3785851455974528  0.3785851455974529
  0.6214148544025471  0.6214148544025473  0.6214148544025471
  0.1303543482808134  0.1303543482808134  0.1303543482808134
  0.8696456517191866  0.8696456517191866  0.8696456517191866
