generated by phonopy                    
    1.000000000000000     
     1.9681027243899074    1.1362846377193483    5.0550765129839883
    -1.9681027243899072    1.1362846377193483    5.0550765129839883
    -0.0000000000000001   -2.2725692754386966    5.0550765129839883
   Sr   C    N 
     1     1     2
Direct
  0.5000000000000000  0.5000000000000000  0.5000000000000000
 -0.0000000000000000  0.0000000000000000 -0.0000000000000000
  0.0816321685309143  0.0816321685309143  0.0816321685309143
  0.9183678314690856  0.9183678314690856  0.9183678314690856
 
  0.00000000E+00  0.00000000E+00  0.00000000E+00
  0.00000000E+00  0.00000000E+00  0.00000000E+00
  0.00000000E+00  0.00000000E+00  0.00000000E+00
  0.00000000E+00  0.00000000E+00  0.00000000E+00
