generated by phonopy                    
    1.000000000000000     
     3.5118908639054642    0.0000000000000000    0.0000000000000000
     0.0000000000000000    3.5118908639054642    0.0000000000000000
     0.0000000000000000    0.0000000000000000    6.1133132592737658
   Pt   S 
     2     2
Direct
  0.5000000000000000  0.0000000000000000  0.5000000000000000
  0.0000000000000000  0.5000000000000000  0.0000000000000000
  0.0000000000000000  0.0000000000000000  0.7500000000000000
  0.0000000000000000  0.0000000000000000  0.2500000000000000
