generated by phonopy
   1.0
     2.9772423245837696   -5.1992554150920904    0.0000000000000000
     2.9772423245837696    5.1992554150920904    0.0000000000000000
     0.0000000000000000    0.0000000000000000    5.0054273868772254
Cs Cu O
   2    2    2
Direct
  0.8156011056763290  0.1843988943236710  0.2500000000000000
  0.1843988943236709  0.8156011056763292  0.7500000000000000
  0.5000000000000000  0.5000000000000000  0.5000000000000000
  0.5000000000000000  0.5000000000000000  0.0000000000000000
  0.3705117299947672  0.6294882700052328  0.2500000000000000
  0.6294882700052327  0.3705117299947673  0.7500000000000000
