generated by phonopy                    
    1.000000000000000     
     1.6258035471290877    0.9386581155844272    5.4282984682467319
    -1.6258035471290879    0.9386581155844272    5.4282984682467319
     0.0000000000000002   -1.8773162311688545    5.4282984682467319
   Na   In   O 
     1     1     2
Direct
  0.5000000000000000  0.5000000000000000  0.5000000000000000
  0.0000000000000000  0.0000000000000000  0.0000000000000000
  0.7392941631540779  0.7392941631540779  0.7392941631540779
  0.2607058368459221  0.2607058368459221  0.2607058368459221
 
  0.00000000E+00  0.00000000E+00  0.00000000E+00
  0.00000000E+00  0.00000000E+00  0.00000000E+00
  0.00000000E+00  0.00000000E+00  0.00000000E+00
  0.00000000E+00  0.00000000E+00  0.00000000E+00
