generated by phonopy                    
    1.000000000000000     
     1.6470137622391448    0.9509038389877885    5.4506031400000099
    -1.6470137622391448    0.9509038389877885    5.4506031400000099
     0.0000000000000001   -1.9018076779755770    5.4506031400000099
   Na   Lu   O 
     1     1     2
Direct
 -0.0000000000000000 -0.0000000000000000  0.0000000000000000
  0.5000000000000000  0.5000000000000000  0.5000000000000000
  0.2369200824133183  0.2369200824133183  0.2369200824133183
  0.7630799175866817  0.7630799175866817  0.7630799175866817
